96
Lattice="10.005560197 0.000000000 0.000000000 0.000000000 10.048370674 0.000000000 0.000000000 0.000000000 10.425355967" Properties=species:S:1:pos:R:3:forces:R:3:becs:R:9 energy="-1105.40455726"
Hf    1.34045    1.21541    0.17317    -0.027433    0.013133    0.005279    5.45998    -0.14969    -0.35464    -0.22775    4.99716    0.04751    -0.01015    -0.03232    5.16315
Hf    1.34045    1.21541    5.38585    -0.027431    0.013129    0.005279    5.45991    -0.14967    -0.35467    -0.22775    4.99719    0.04749    -0.01009    -0.03228    5.1632
Hf    1.34045    6.23959    0.17317    -0.027433    0.013132    0.005281    5.45994    -0.14971    -0.35468    -0.22776    4.99719    0.04755    -0.01011    -0.03236    5.16318
Hf    1.34045    6.23959    5.38585    -0.027431    0.013132    0.005280    5.45996    -0.14978    -0.35468    -0.22778    4.99716    0.04756    -0.0101    -0.03232    5.16314
Hf    6.34323    1.21541    0.17317    -0.027431    0.013130    0.005283    5.45996    -0.14963    -0.3547    -0.22777    4.99717    0.04752    -0.01008    -0.03232    5.16321
Hf    6.34323    1.21541    5.38585    -0.027430    0.013133    0.005278    5.45995    -0.1497    -0.35465    -0.22781    4.99715    0.04755    -0.01014    -0.03234    5.16325
Hf    6.34323    6.23959    0.17317    -0.027428    0.013130    0.005282    5.45993    -0.14975    -0.35469    -0.22776    4.99716    0.04754    -0.01014    -0.03237    5.1632
Hf    6.34323    6.23959    5.38585    -0.027435    0.013133    0.005278    5.45996    -0.14971    -0.35468    -0.22778    4.99715    0.04752    -0.01013    -0.03233    5.16323
Hf    1.34045    3.72750    2.43317    -0.027435    0.013131    -0.005289    5.4599    -0.14966    0.35471    -0.22776    4.99717    -0.04753    0.01007    0.03229    5.16318
Hf    1.34045    3.72750    7.64585    -0.027434    0.013129    -0.005289    5.45997    -0.14965    0.35469    -0.2278    4.99715    -0.04756    0.0101    0.03233    5.16317
Hf    1.34045    8.75168    2.43317    -0.027435    0.013132    -0.005287    5.4599    -0.14966    0.3547    -0.2278    4.99718    -0.04749    0.01009    0.03232    5.16327
Hf    1.34045    8.75168    7.64585    -0.027433    0.013132    -0.005289    5.45989    -0.14968    0.35465    -0.22775    4.99723    -0.04756    0.01011    0.03236    5.16321
Hf    6.34323    3.72750    2.43317    -0.027431    0.013131    -0.005288    5.45991    -0.14975    0.35472    -0.22776    4.99715    -0.04753    0.01008    0.03235    5.16323
Hf    6.34323    3.72750    7.64585    -0.027436    0.013130    -0.005287    5.45994    -0.14971    0.35467    -0.22778    4.99714    -0.04753    0.01013    0.03238    5.16321
Hf    6.34323    8.75168    2.43317    -0.027431    0.013132    -0.005288    5.45988    -0.14971    0.35467    -0.22775    4.99722    -0.0475    0.01009    0.03233    5.16321
Hf    6.34323    8.75168    7.64585    -0.027435    0.013131    -0.005286    5.45993    -0.14963    0.35467    -0.22778    4.9972    -0.04756    0.0101    0.03235    5.16319
Hf    3.66233    1.21541    2.77951    0.027431    0.013129    0.005281    5.45988    0.14969    0.35464    0.22774    4.99717    0.04757    0.0101    -0.03235    5.16327
Hf    3.66233    1.21541    7.99219    0.027428    0.013130    0.005281    5.4599    0.14966    0.35463    0.22776    4.99716    0.0476    0.0101    -0.03234    5.16321
Hf    3.66233    6.23959    2.77951    0.027431    0.013131    0.005280    5.45985    0.14966    0.35468    0.22782    4.99718    0.04748    0.0101    -0.03235    5.16326
Hf    3.66233    6.23959    7.99219    0.027429    0.013131    0.005281    5.45988    0.1497    0.35464    0.22775    4.9972    0.04756    0.01009    -0.03233    5.16322
Hf    8.66511    1.21541    2.77951    0.027430    0.013132    0.005281    5.45988    0.14971    0.35463    0.22774    4.99716    0.04751    0.01015    -0.03233    5.16317
Hf    8.66511    1.21541    7.99219    0.027435    0.013130    0.005281    5.45989    0.14969    0.35462    0.22773    4.99718    0.04753    0.01014    -0.03234    5.16318
Hf    8.66511    6.23959    2.77951    0.027432    0.013131    0.005279    5.45992    0.14972    0.35466    0.22776    4.99717    0.04755    0.0101    -0.03236    5.16318
Hf    8.66511    6.23959    7.99219    0.027435    0.013132    0.005283    5.45984    0.14964    0.35463    0.22781    4.99716    0.04749    0.01006    -0.0323    5.16329
Hf    3.66233    3.72750    5.03951    0.027432    0.013130    -0.005289    5.45992    0.14969    -0.35468    0.22776    4.99708    -0.04753    -0.01013    0.03232    5.16322
Hf    3.66233    3.72750    10.25219    0.027435    0.013131    -0.005289    5.4599    0.14966    -0.35469    0.22775    4.99714    -0.04751    -0.0101    0.03233    5.16322
Hf    3.66233    8.75168    5.03951    0.027430    0.013132    -0.005290    5.45992    0.14964    -0.35463    0.22781    4.99723    -0.04752    -0.0101    0.03228    5.16317
Hf    3.66233    8.75168    10.25219    0.027431    0.013132    -0.005290    5.45992    0.14969    -0.35466    0.22775    4.99719    -0.04755    -0.01009    0.03229    5.16316
Hf    8.66511    3.72750    5.03951    0.027435    0.013130    -0.005291    5.45992    0.14971    -0.35464    0.22779    4.99717    -0.04755    -0.01014    0.03235    5.16317
Hf    8.66511    3.72750    10.25219    0.027435    0.013130    -0.005287    5.45986    0.14968    -0.35468    0.22779    4.99717    -0.04753    -0.01008    0.03235    5.1632
Hf    8.66511    8.75168    5.03951    0.027435    0.013132    -0.005291    5.45988    0.14971    -0.35466    0.22776    4.99724    -0.04751    -0.01007    0.03235    5.1632
Hf    8.66511    8.75168    10.25219    0.027435    0.013131    -0.005286    5.45985    0.14965    -0.35466    0.22778    4.99716    -0.04751    -0.01008    0.03235    5.16318
O    0.35856    1.90620    1.91650    0.017500    0.016937    0.005198    -2.94103    -0.68635    0.75666    -0.63785    -2.48878    -0.32052    0.95909    -0.30772    -2.49027
O    0.35856    1.90620    7.12918    0.017498    0.016937    0.005197    -2.94105    -0.68637    0.75664    -0.63782    -2.48877    -0.32055    0.95909    -0.30772    -2.49032
O    0.35856    6.93039    1.91650    0.017501    0.016931    0.005196    -2.94098    -0.68631    0.75665    -0.63783    -2.4888    -0.3206    0.95911    -0.30774    -2.4903
O    0.35856    6.93039    7.12918    0.017500    0.016934    0.005198    -2.94096    -0.68626    0.75667    -0.63784    -2.48878    -0.32058    0.95915    -0.30774    -2.49026
O    5.36134    1.90620    1.91650    0.017500    0.016933    0.005195    -2.94097    -0.68633    0.75666    -0.63784    -2.48874    -0.32063    0.95909    -0.30773    -2.49032
O    5.36134    1.90620    7.12918    0.017499    0.016935    0.005200    -2.94098    -0.68633    0.75664    -0.63782    -2.48878    -0.32059    0.9591    -0.30778    -2.49035
O    5.36134    6.93039    1.91650    0.017499    0.016935    0.005199    -2.94096    -0.68629    0.7567    -0.63788    -2.48872    -0.32058    0.95915    -0.30769    -2.49026
O    5.36134    6.93039    7.12918    0.017501    0.016935    0.005197    -2.94097    -0.68632    0.75666    -0.63784    -2.48872    -0.32054    0.9591    -0.30772    -2.49024
O    0.35856    4.41830    0.68984    0.017502    0.016936    -0.005178    -2.94096    -0.68635    -0.75669    -0.63786    -2.48874    0.32055    -0.95911    0.30772    -2.49028
O    0.35856    4.41830    5.90251    0.017501    0.016936    -0.005174    -2.94102    -0.68635    -0.75667    -0.63787    -2.48881    0.32059    -0.9591    0.30773    -2.49032
O    0.35856    9.44248    0.68984    0.017500    0.016934    -0.005180    -2.94098    -0.68631    -0.75667    -0.63787    -2.48879    0.32054    -0.95912    0.30771    -2.49026
O    0.35856    9.44248    5.90251    0.017503    0.016936    -0.005177    -2.94096    -0.68634    -0.75668    -0.6379    -2.48879    0.32056    -0.95912    0.30769    -2.49028
O    5.36134    4.41830    0.68984    0.017498    0.016934    -0.005175    -2.94101    -0.68634    -0.75666    -0.63785    -2.48873    0.32054    -0.95914    0.30773    -2.49029
O    5.36134    4.41830    5.90251    0.017500    0.016936    -0.005173    -2.94101    -0.68632    -0.75666    -0.63782    -2.48867    0.32054    -0.95914    0.30771    -2.49027
O    5.36134    9.44248    0.68984    0.017501    0.016939    -0.005177    -2.941    -0.68632    -0.75666    -0.63781    -2.48873    0.32058    -0.95912    0.30775    -2.49029
O    5.36134    9.44248    5.90251    0.017505    0.016935    -0.005177    -2.94103    -0.68632    -0.75668    -0.63788    -2.48877    0.32054    -0.95911    0.30772    -2.49026
O    2.30188    2.47031    3.82657    -0.025193    -0.030063    0.032828    -2.51889    0.18842    -0.0993    0.13805    -2.50842    0.27598    -0.15983    0.24382    -2.67294
O    2.30188    2.47031    9.03925    -0.025192    -0.030065    0.032825    -2.51898    0.18843    -0.09931    0.13807    -2.50841    0.27594    -0.15983    0.24379    -2.67293
O    2.30188    7.49449    3.82657    -0.025193    -0.030070    0.032827    -2.51893    0.18843    -0.09931    0.13805    -2.50843    0.27594    -0.15978    0.24381    -2.67294
O    2.30188    7.49449    9.03925    -0.025193    -0.030063    0.032825    -2.51891    0.18844    -0.09931    0.13808    -2.50842    0.27595    -0.15981    0.24377    -2.6729
O    7.30466    2.47031    3.82657    -0.025194    -0.030065    0.032825    -2.51895    0.18842    -0.09929    0.13807    -2.50843    0.27592    -0.1598    0.2438    -2.673
O    7.30466    2.47031    9.03925    -0.025197    -0.030067    0.032825    -2.51893    0.18843    -0.09929    0.1381    -2.50841    0.2759    -0.15983    0.24375    -2.67288
O    7.30466    7.49449    3.82657    -0.025197    -0.030063    0.032827    -2.5189    0.18846    -0.09931    0.13814    -2.50843    0.27589    -0.15978    0.24376    -2.67286
O    7.30466    7.49449    9.03925    -0.025194    -0.030065    0.032828    -2.51894    0.18843    -0.09931    0.13808    -2.50839    0.27591    -0.15975    0.24375    -2.67293
O    2.30188    4.98240    3.99244    -0.025194    -0.030066    -0.032861    -2.5189    0.18847    0.0993    0.13811    -2.50843    -0.27593    0.15979    -0.24378    -2.67298
O    2.30188    4.98240    9.20512    -0.025195    -0.030066    -0.032862    -2.51892    0.18849    0.0993    0.13808    -2.50843    -0.27595    0.1598    -0.24379    -2.67288
O    2.30188    10.00659    3.99244    -0.025194    -0.030069    -0.032863    -2.51884    0.18847    0.09924    0.13811    -2.50843    -0.27592    0.15982    -0.24378    -2.6729
O    2.30188    10.00659    9.20512    -0.025193    -0.030069    -0.032865    -2.51887    0.18847    0.0993    0.13811    -2.50842    -0.27594    0.15981    -0.24376    -2.67289
O    7.30466    4.98240    3.99244    -0.025198    -0.030064    -0.032864    -2.51893    0.18846    0.09929    0.13809    -2.5084    -0.27589    0.15982    -0.24378    -2.6729
O    7.30466    4.98240    9.20512    -0.025196    -0.030065    -0.032867    -2.51893    0.18847    0.0993    0.13811    -2.50841    -0.2759    0.15978    -0.24377    -2.67296
O    7.30466    10.00659    3.99244    -0.025198    -0.030068    -0.032864    -2.5189    0.18848    0.09934    0.13809    -2.50845    -0.27592    0.15989    -0.24377    -2.67291
O    7.30466    10.00659    9.20512    -0.025197    -0.030063    -0.032863    -2.51892    0.18846    0.09929    0.13807    -2.50841    -0.27591    0.1598    -0.24379    -2.67294
O    2.70090    4.98240    1.38611    0.025194    -0.030066    -0.032838    -2.51892    -0.18844    -0.09931    -0.13808    -2.5084    -0.2759    -0.15982    -0.24378    -2.67292
O    2.70090    4.98240    6.59878    0.025195    -0.030064    -0.032837    -2.51896    -0.18845    -0.09931    -0.13809    -2.5084    -0.27589    -0.1598    -0.24377    -2.67291
O    2.70090    10.00659    1.38611    0.025197    -0.030064    -0.032838    -2.51896    -0.18845    -0.09931    -0.13807    -2.50842    -0.27592    -0.15979    -0.24379    -2.67289
O    2.70090    10.00659    6.59878    0.025195    -0.030066    -0.032833    -2.51892    -0.18844    -0.09926    -0.13808    -2.50844    -0.27592    -0.15982    -0.24376    -2.67292
O    7.70368    4.98240    1.38611    0.025194    -0.030066    -0.032837    -2.5189    -0.18845    -0.09928    -0.1381    -2.50842    -0.27591    -0.15979    -0.24376    -2.67294
O    7.70368    4.98240    6.59878    0.025195    -0.030064    -0.032835    -2.51896    -0.18846    -0.0993    -0.1381    -2.50844    -0.27589    -0.15978    -0.24379    -2.67293
O    7.70368    10.00659    1.38611    0.025195    -0.030066    -0.032837    -2.51894    -0.18844    -0.09928    -0.13807    -2.50841    -0.27592    -0.1598    -0.24381    -2.67295
O    7.70368    10.00659    6.59878    0.025191    -0.030064    -0.032836    -2.5189    -0.18846    -0.09933    -0.13808    -2.50841    -0.27593    -0.15984    -0.2438    -2.67287
O    2.70090    2.47031    1.22023    0.025197    -0.030064    0.032854    -2.51892    -0.18842    0.09936    -0.13811    -2.5084    0.27593    0.15985    0.24378    -2.67292
O    2.70090    2.47031    6.43291    0.025195    -0.030065    0.032854    -2.51898    -0.1884    0.09932    -0.13807    -2.50843    0.27592    0.15984    0.24378    -2.67295
O    2.70090    7.49449    1.22023    0.025194    -0.030065    0.032852    -2.51889    -0.18844    0.0993    -0.13811    -2.50841    0.27591    0.15981    0.24379    -2.67292
O    2.70090    7.49449    6.43291    0.025194    -0.030066    0.032854    -2.51891    -0.18847    0.09932    -0.13813    -2.50845    0.2759    0.15974    0.24377    -2.67293
O    7.70368    2.47031    1.22023    0.025191    -0.030066    0.032852    -2.51891    -0.18842    0.0993    -0.13809    -2.50841    0.27592    0.1598    0.24378    -2.6729
O    7.70368    2.47031    6.43291    0.025194    -0.030064    0.032853    -2.51895    -0.18841    0.09927    -0.1381    -2.50843    0.2759    0.15976    0.24378    -2.67293
O    7.70368    7.49449    1.22023    0.025194    -0.030068    0.032850    -2.51891    -0.18843    0.09926    -0.13807    -2.50846    0.27595    0.15976    0.24381    -2.67293
O    7.70368    7.49449    6.43291    0.025192    -0.030068    0.032854    -2.51888    -0.18846    0.09934    -0.13808    -2.50843    0.2759    0.1598    0.24378    -2.67291
O    4.64422    1.90620    4.52284    -0.017502    0.016933    0.005194    -2.94102    0.6863    -0.75665    0.63784    -2.4887    -0.32058    -0.95908    -0.30774    -2.49033
O    4.64422    1.90620    9.73552    -0.017500    0.016936    0.005194    -2.94102    0.68628    -0.75666    0.63782    -2.4887    -0.32056    -0.95912    -0.30771    -2.49035
O    4.64422    6.93039    4.52284    -0.017495    0.016933    0.005195    -2.94098    0.68634    -0.75669    0.63787    -2.48874    -0.32053    -0.95911    -0.30768    -2.49026
O    4.64422    6.93039    9.73552    -0.017501    0.016933    0.005195    -2.94096    0.68634    -0.75663    0.63786    -2.48879    -0.32058    -0.9591    -0.30771    -2.49025
O    9.64700    1.90620    4.52284    -0.017503    0.016934    0.005196    -2.94098    0.6863    -0.75671    0.63786    -2.48874    -0.3205    -0.95911    -0.30773    -2.49027
O    9.64700    1.90620    9.73552    -0.017499    0.016933    0.005195    -2.94103    0.68631    -0.75666    0.63786    -2.48872    -0.32054    -0.95909    -0.30772    -2.49031
O    9.64700    6.93039    4.52284    -0.017496    0.016932    0.005195    -2.94098    0.6863    -0.75662    0.63783    -2.48878    -0.32057    -0.9591    -0.30772    -2.49026
O    9.64700    6.93039    9.73552    -0.017501    0.016934    0.005195    -2.94098    0.68637    -0.75664    0.63785    -2.48876    -0.32058    -0.95913    -0.30772    -2.49027
O    4.64422    4.41830    3.29618    -0.017498    0.016933    -0.005179    -2.94098    0.68634    0.75666    0.63782    -2.48872    0.32059    0.95918    0.30773    -2.49029
O    4.64422    4.41830    8.50885    -0.017496    0.016932    -0.005177    -2.941    0.68633    0.75668    0.63789    -2.48879    0.32053    0.95912    0.30771    -2.49028
O    4.64422    9.44248    3.29618    -0.017496    0.016937    -0.005179    -2.94093    0.68633    0.75669    0.63782    -2.48873    0.32055    0.95912    0.30773    -2.49028
O    4.64422    9.44248    8.50885    -0.017499    0.016933    -0.005182    -2.94098    0.68634    0.75667    0.63786    -2.48876    0.32056    0.9591    0.30775    -2.49028
O    9.64700    4.41830    3.29618    -0.017501    0.016933    -0.005180    -2.94101    0.68633    0.75669    0.63786    -2.48877    0.32055    0.95911    0.30773    -2.49026
O    9.64700    4.41830    8.50885    -0.017500    0.016935    -0.005180    -2.94103    0.68639    0.75665    0.63784    -2.48875    0.32059    0.95916    0.3077    -2.49031
O    9.64700    9.44248    3.29618    -0.017502    0.016935    -0.005180    -2.94097    0.6863    0.75669    0.6379    -2.48877    0.32055    0.95913    0.30773    -2.49028
O    9.64700    9.44248    8.50885    -0.017498    0.016935    -0.005180    -2.94097    0.68632    0.75672    0.63787    -2.48873    0.32051    0.95913    0.30775    -2.49028
96
Lattice="10.061089897 0.005985590 -0.005144835 -0.004398278 10.066268331 0.004648838 0.003157896 0.009219143 10.259897092" Properties=species:S:1:pos:R:3:forces:R:3:becs:R:9 energy="-1103.06898614"
Hf    1.25448    1.09573    0.01558    0.010716    0.018686    -0.009632    5.50681    0.0016    0.00022    0.00156    5.51104    -0.00489    -0.00351    -0.00336    4.88223
Hf    1.25607    1.10034    5.14552    0.010586    0.019711    -0.009716    5.50683    0.00157    9e-05    0.0016    5.51105    -0.00492    -0.00342    -0.00325    4.88217
Hf    1.25229    6.12886    0.01791    0.012472    0.021221    -0.011190    5.50683    0.002    -0.00018    0.00199    5.51122    -0.00522    -0.00382    -0.00363    4.88221
Hf    1.25387    6.13348    5.14786    0.009671    0.018749    -0.009530    5.50666    0.0018    0.00031    0.0017    5.511    -0.00468    -0.00313    -0.00297    4.88238
Hf    6.28504    1.09872    0.01301    0.008506    0.017874    -0.009990    5.50681    0.00175    0.00033    0.00176    5.51101    -0.00465    -0.00322    -0.00309    4.88246
Hf    6.28662    1.10333    5.14296    0.008923    0.018137    -0.009079    5.50683    0.00167    0.00028    0.00184    5.5109    -0.00477    -0.0032    -0.00305    4.88229
Hf    6.28283    6.13185    0.01534    0.010298    0.020525    -0.011330    5.50686    0.00207    9e-05    0.00221    5.51097    -0.00493    -0.00356    -0.00333    4.88254
Hf    6.28441    6.13646    5.14529    0.010468    0.021460    -0.010825    5.50678    0.00207    -1e-05    0.00222    5.51109    -0.00504    -0.00348    -0.00352    4.88244
Hf    1.25468    3.61490    2.58173    -0.024169    0.023935    -0.017884    5.50655    -0.00318    0.00088    -0.00318    5.51089    -0.00526    0.00441    -0.00592    4.88242
Hf    1.25626    3.61951    7.71168    -0.024613    0.024013    -0.017800    5.50678    -0.00331    0.00097    -0.00313    5.51069    -0.00507    0.00452    -0.00595    4.88236
Hf    1.25248    8.64803    2.58407    -0.024164    0.023091    -0.018103    5.50681    -0.00324    0.00113    -0.00304    5.51084    -0.00515    0.00452    -0.00601    4.88229
Hf    1.25405    8.65264    7.71401    -0.023977    0.022214    -0.017404    5.50666    -0.00332    0.00111    -0.00328    5.51095    -0.00492    0.00443    -0.00578    4.88245
Hf    6.28522    3.61789    2.57916    -0.024996    0.023606    -0.018222    5.50654    -0.00316    0.00092    -0.00352    5.51106    -0.00503    0.00437    -0.00579    4.88227
Hf    6.28680    3.62250    7.70912    -0.024852    0.023801    -0.018085    5.50646    -0.00315    0.00089    -0.00335    5.51104    -0.00505    0.00435    -0.00585    4.88237
Hf    6.28303    8.65102    2.58149    -0.026017    0.022252    -0.017281    5.50705    -0.00315    0.00122    -0.00312    5.51069    -0.00507    0.00443    -0.00591    4.88234
Hf    6.28460    8.65563    7.71144    -0.025216    0.022260    -0.018333    5.50676    -0.00323    0.00104    -0.00342    5.51115    -0.00495    0.0045    -0.0059    4.88225
Hf    3.77104    1.09983    2.57928    -0.024260    0.023158    -0.017504    5.50629    -0.00294    0.00095    -0.00316    5.511    -0.00512    0.00451    -0.00606    4.88232
Hf    3.77261    1.10443    7.70923    -0.024025    0.023798    -0.017551    5.50664    -0.00305    0.00091    -0.0034    5.51077    -0.00515    0.00445    -0.00589    4.88227
Hf    3.76884    6.13296    2.58162    -0.023777    0.025159    -0.017879    5.50683    -0.003    0.00092    -0.00314    5.51071    -0.00522    0.0044    -0.00593    4.88195
Hf    3.77041    6.13757    7.71156    -0.024414    0.025106    -0.017526    5.50693    -0.00325    0.00112    -0.00323    5.51063    -0.00526    0.00461    -0.00599    4.88207
Hf    8.80158    1.10282    2.57671    -0.025919    0.024284    -0.017483    5.50686    -0.00314    0.0012    -0.00322    5.51067    -0.00489    0.00463    -0.00588    4.88227
Hf    8.80316    1.10743    7.70666    -0.025928    0.024536    -0.017707    5.50672    -0.00301    0.00113    -0.0033    5.51076    -0.00496    0.00452    -0.00586    4.88229
Hf    8.79938    6.13595    2.57904    -0.026311    0.025661    -0.017839    5.50687    -0.00331    0.00112    -0.00308    5.51066    -0.0051    0.00458    -0.00594    4.88203
Hf    8.80096    6.14056    7.70899    -0.026080    0.024899    -0.017798    5.5067    -0.00326    0.00119    -0.00325    5.51088    -0.00505    0.00453    -0.00583    4.88214
Hf    3.77023    3.61840    5.14539    0.012732    0.021140    -0.009891    5.50689    0.00189    -0.00022    0.00179    5.51084    -0.00519    -0.00363    -0.00357    4.88189
Hf    3.76865    3.61379    0.01544    0.012669    0.021083    -0.010407    5.5069    0.00189    1e-05    0.00181    5.5109    -0.0052    -0.00369    -0.00362    4.88193
Hf    3.76803    8.65154    5.14773    0.010598    0.017582    -0.009444    5.5068    0.00171    0.0003    0.00159    5.51081    -0.00485    -0.00314    -0.0032    4.88243
Hf    3.76645    8.64692    0.01777    0.011610    0.018721    -0.010668    5.50674    0.00212    0.0002    0.00194    5.51086    -0.00487    -0.00334    -0.00333    4.88229
Hf    8.80073    3.62156    5.14280    0.009239    0.015175    -0.008494    5.50674    0.00164    0.00069    0.0016    5.51058    -0.00455    -0.00295    -0.00287    4.88219
Hf    8.79920    3.61679    0.01287    0.009555    0.019299    -0.008942    5.50677    0.00142    0.00028    0.00154    5.51067    -0.00469    -0.00339    -0.0032    4.88192
Hf    8.79872    8.65467    5.14521    0.005960    0.014284    -0.009701    5.50668    0.00168    0.00057    0.00166    5.51077    -0.00442    -0.00295    -0.00284    4.88222
Hf    8.79700    8.64992    0.01521    0.008444    0.016931    -0.009309    5.50666    0.00169    0.00049    0.00163    5.51066    -0.00447    -0.00313    -0.003    4.88227
O    10.05774    2.36326    1.53303    -0.005120    -0.012423    -0.000636    -2.75155    -0.61197    -0.00438    -0.61221    -2.75484    0.00308    -0.00405    0.00189    -2.44391
O    10.05931    2.36788    6.66299    -0.004677    -0.013936    -0.000422    -2.75147    -0.61198    -0.00414    -0.61226    -2.7548    0.00302    -0.00393    0.00179    -2.44377
O    10.05552    7.39641    1.53536    -0.005010    -0.012790    -0.000283    -2.7516    -0.61198    -0.00436    -0.6122    -2.7548    0.00307    -0.00406    0.00197    -2.44382
O    10.05710    7.40100    6.66529    -0.006104    -0.013142    -0.000338    -2.75156    -0.61192    -0.00426    -0.61212    -2.75478    0.0032    -0.00399    0.00198    -2.44386
O    5.02720    2.36027    1.53559    -0.005586    -0.012586    0.000213    -2.75151    -0.61195    -0.00429    -0.61221    -2.75481    0.00308    -0.00401    0.00189    -2.44381
O    5.02878    2.36487    6.66557    -0.005683    -0.012323    -0.000395    -2.75141    -0.61191    -0.00435    -0.61215    -2.75476    0.00312    -0.00409    0.00188    -2.44383
O    5.02501    7.39340    1.53791    -0.005605    -0.012616    0.000369    -2.75156    -0.61187    -0.00439    -0.61221    -2.75472    0.0031    -0.00404    0.00182    -2.44375
O    5.02659    7.39801    6.66785    -0.006908    -0.012539    0.000142    -2.75149    -0.61195    -0.00437    -0.61214    -2.75492    0.00317    -0.00412    0.00199    -2.44382
O    10.05634    4.87847    1.05360    -0.016292    -0.004360    0.015429    -2.75367    -0.61827    0.00372    -0.61856    -2.75697    0.0028    0.0043    0.00292    -2.43812
O    10.05759    4.88283    6.18372    -0.009859    0.001783    0.012918    -2.75363    -0.61794    0.00301    -0.61824    -2.75667    0.00197    0.00351    0.00208    -2.4382
O    10.05376    9.91143    1.05611    -0.009461    0.001450    0.012915    -2.75354    -0.61782    0.00318    -0.61807    -2.75672    0.00192    0.00388    0.0022    -2.43823
O    10.05535    9.91604    6.18605    -0.008814    0.002061    0.013425    -2.75351    -0.61801    0.00295    -0.61834    -2.75679    0.00182    0.00365    0.00196    -2.43821
O    5.02573    4.87553    1.05617    -0.015832    -0.004488    0.015662    -2.75373    -0.61821    0.00373    -0.61849    -2.75699    0.00272    0.00442    0.00286    -2.438
O    5.02730    4.88015    6.18611    -0.015956    -0.004770    0.015525    -2.7537    -0.61823    0.00387    -0.61848    -2.75699    0.00272    0.00445    0.00285    -2.43789
O    5.02321    9.90843    1.05867    -0.009083    0.001945    0.013952    -2.75357    -0.61786    0.00321    -0.61815    -2.75688    0.00199    0.00386    0.00214    -2.4381
O    5.02480    9.91304    6.18862    -0.009618    0.001535    0.013522    -2.7535    -0.61794    0.00317    -0.61813    -2.75682    0.00208    0.00377    0.00205    -2.43815
O    2.51170    2.35959    3.62140    0.030160    -0.012873    0.017069    -2.75518    0.61851    -0.00445    0.61884    -2.75601    0.00504    -0.00557    0.00595    -2.43842
O    2.51327    2.36418    8.75137    0.030239    -0.012865    0.016937    -2.75507    0.6185    -0.00443    0.61873    -2.75596    0.00501    -0.00551    0.00609    -2.43841
O    2.50949    7.39271    3.62374    0.030254    -0.013149    0.017145    -2.75521    0.61865    -0.00441    0.61883    -2.75601    0.00505    -0.0055    0.00612    -2.43834
O    2.51107    7.39733    8.75367    0.030605    -0.012724    0.016953    -2.75518    0.6187    -0.00452    0.61891    -2.75603    0.00498    -0.00565    0.00605    -2.43839
O    7.54223    2.36257    3.61883    0.030655    -0.012991    0.017961    -2.75521    0.61849    -0.00446    0.61894    -2.75609    0.00505    -0.00545    0.00605    -2.43847
O    7.54381    2.36718    8.74880    0.031131    -0.012748    0.018309    -2.75497    0.61833    -0.00456    0.61867    -2.75599    0.00492    -0.00553    0.00602    -2.43849
O    7.54004    7.39569    3.62114    0.031158    -0.012782    0.017113    -2.75525    0.6188    -0.00446    0.61894    -2.75604    0.00494    -0.00548    0.00605    -2.4384
O    7.54162    7.40031    8.75109    0.031182    -0.012532    0.017875    -2.75521    0.61867    -0.00451    0.61889    -2.75603    0.00489    -0.00553    0.00592    -2.43846
O    2.51142    4.87775    4.10313    0.003478    -0.017935    -0.005477    -2.75318    0.61258    0.00435    0.6131    -2.75413    -0.00014    0.00465    -0.00087    -2.44415
O    2.51298    4.88234    9.23309    0.003984    -0.017861    -0.005556    -2.75315    0.61255    0.00432    0.61294    -2.75414    -8e-05    0.00462    -0.00081    -2.44423
O    2.50915    9.91080    4.10546    0.002290    -0.016524    -0.005119    -2.75329    0.6127    0.00422    0.61292    -2.75406    -0.0003    0.00453    -0.00093    -2.44403
O    2.51073    9.91542    9.23541    0.003545    -0.016586    -0.005443    -2.75318    0.61254    0.00428    0.61304    -2.75413    -0.00025    0.00447    -0.00096    -2.44417
O    7.54191    4.88070    4.10055    0.004465    -0.017720    -0.006179    -2.75328    0.61271    0.00409    0.61296    -2.75404    0.0    0.00444    -0.00074    -2.44429
O    7.54350    4.88531    9.23051    0.005016    -0.018322    -0.005500    -2.75322    0.61271    0.00426    0.61284    -2.75395    -7e-05    0.0046    -0.00087    -2.44419
O    7.53969    9.91379    4.10288    0.003702    -0.016683    -0.005610    -2.7533    0.61261    0.00419    0.61288    -2.754    -0.00022    0.00445    -0.00096    -2.44421
O    7.54128    9.91841    9.23283    0.004444    -0.017184    -0.005308    -2.75321    0.6127    0.00427    0.61294    -2.75409    -0.00024    0.00448    -0.00086    -2.44418
O    2.51092    4.87532    1.53806    -0.004372    -0.012317    -0.000130    -2.75167    -0.61213    -0.00434    -0.6123    -2.75485    0.00281    -0.00401    0.0017    -2.44391
O    2.51250    4.87991    6.66801    -0.005341    -0.013272    -0.000519    -2.75161    -0.61201    -0.00427    -0.61211    -2.75473    0.00281    -0.00402    0.00173    -2.44389
O    2.50877    9.90837    1.54039    -0.007142    -0.010841    -0.000287    -2.75155    -0.61203    -0.00432    -0.61222    -2.75493    0.00287    -0.00397    0.00181    -2.44384
O    2.51034    9.91299    6.67033    -0.006990    -0.011881    -0.000641    -2.75162    -0.61206    -0.0042    -0.61218    -2.75478    0.00291    -0.00395    0.00172    -2.44392
O    7.54144    4.87833    1.53546    -0.003164    -0.014337    0.000024    -2.75152    -0.61189    -0.00422    -0.61216    -2.75483    0.00271    -0.00398    0.00163    -2.44389
O    7.54302    4.88294    6.66543    -0.004592    -0.014270    -0.000448    -2.75149    -0.61189    -0.00414    -0.6121    -2.75475    0.00283    -0.0039    0.00172    -2.44392
O    7.53930    9.91140    1.53780    -0.006353    -0.013128    -0.000311    -2.75162    -0.61191    -0.00423    -0.6122    -2.75477    0.00287    -0.00393    0.00175    -2.44388
O    7.54087    9.91601    6.66775    -0.005771    -0.012946    -0.000530    -2.75159    -0.61187    -0.00415    -0.61214    -2.75485    0.0029    -0.00386    0.00169    -2.4439
O    2.51150    2.35745    1.05627    -0.015136    -0.003422    0.016941    -2.75357    -0.61832    0.00378    -0.61842    -2.75703    0.00257    0.00431    0.00263    -2.43813
O    2.51308    2.36207    6.18622    -0.015065    -0.003691    0.016684    -2.75348    -0.61817    0.00378    -0.61835    -2.75677    0.00267    0.00422    0.0026    -2.43812
O    2.50927    7.39062    1.05859    -0.014837    -0.003485    0.017358    -2.75366    -0.61832    0.00378    -0.61842    -2.75698    0.00253    0.00438    0.00256    -2.43795
O    2.51053    7.39497    6.18872    -0.009256    0.001703    0.014445    -2.75346    -0.6179    0.00309    -0.61808    -2.75674    0.00191    0.00356    0.0018    -2.43817
O    7.54170    2.36023    1.05390    -0.007925    0.002294    0.014253    -2.75345    -0.61782    0.00308    -0.61817    -2.75683    0.00186    0.0037    0.00187    -2.43819
O    7.54328    2.36484    6.18384    -0.008255    0.002348    0.013915    -2.75328    -0.61779    0.00297    -0.61794    -2.7568    0.00173    0.00358    0.00177    -2.43807
O    7.53952    7.39334    1.05619    -0.007988    0.002788    0.014700    -2.75345    -0.61782    0.0031    -0.61815    -2.75659    0.00185    0.00372    0.00188    -2.43804
O    7.54109    7.39796    6.18613    -0.007482    0.003175    0.014224    -2.75347    -0.61781    0.00294    -0.61805    -2.75684    0.00169    0.00361    0.00185    -2.43789
O    5.02786    2.36262    4.10068    0.000966    -0.015728    -0.005612    -2.75337    0.61272    0.00426    0.6129    -2.75395    -8e-05    0.00455    -0.00074    -2.44413
O    5.02945    2.36725    9.23063    0.000642    -0.015124    -0.005352    -2.7532    0.61281    0.00429    0.61282    -2.75398    5e-05    0.00462    -0.00075    -2.44412
O    5.02567    7.39577    4.10298    0.000369    -0.015800    -0.005223    -2.75311    0.61258    0.00427    0.61288    -2.754    -0.0001    0.00465    -0.00075    -2.44418
O    5.02725    7.40038    9.23293    0.000507    -0.014832    -0.005508    -2.75312    0.61257    0.00434    0.6128    -2.75395    5e-05    0.0046    -0.00078    -2.44422
O    10.05839    2.36562    4.09811    0.000598    -0.014603    -0.004849    -2.75329    0.61268    0.00414    0.61286    -2.75409    0.00014    0.00456    -0.00071    -2.44397
O    10.05997    2.37024    9.22806    0.000781    -0.015014    -0.004906    -2.7532    0.61275    0.00431    0.61301    -2.75408    -8e-05    0.00471    -0.00086    -2.44403
O    10.05620    7.39876    4.10042    0.000875    -0.014687    -0.005061    -2.75308    0.61271    0.00423    0.61272    -2.7541    -5e-05    0.00456    -0.00089    -2.44415
O    10.05776    7.40335    9.23038    0.000816    -0.014576    -0.005295    -2.75315    0.61248    0.00434    0.61299    -2.75402    -0.0001    0.00468    -0.00086    -2.4441
O    5.02608    4.87781    3.62109    0.027718    -0.014132    0.018658    -2.75531    0.61897    -0.00453    0.61937    -2.75619    0.0047    -0.00573    0.00575    -2.43825
O    5.02767    4.88245    8.75105    0.027618    -0.014306    0.018566    -2.75532    0.61895    -0.0047    0.61926    -2.75623    0.0048    -0.00575    0.00574    -2.43838
O    5.02358    9.91075    3.62361    0.030128    -0.012728    0.017840    -2.75509    0.61851    -0.00447    0.61883    -2.75592    0.00514    -0.00556    0.00624    -2.43846
O    5.02548    9.91560    8.75335    0.027655    -0.013434    0.020248    -2.75522    0.6188    -0.00475    0.61924    -2.75621    0.0046    -0.00594    0.00577    -2.43837
O    10.05665    4.88083    3.61851    0.027418    -0.014445    0.020063    -2.75536    0.61897    -0.00461    0.61913    -2.75601    0.00462    -0.00565    0.00567    -2.43842
O    10.05825    4.88546    8.74847    0.027735    -0.014483    0.020080    -2.75518    0.61887    -0.0047    0.61905    -2.756    0.00466    -0.00575    0.00572    -2.43836
O    10.05446    9.91402    3.62084    0.027700    -0.014455    0.021212    -2.75526    0.61884    -0.00479    0.61901    -2.75597    0.00474    -0.00586    0.00584    -2.43843
O    10.05604    9.91862    8.75079    0.027715    -0.014044    0.020838    -2.75521    0.61876    -0.00491    0.61907    -2.75601    0.00456    -0.00592    0.00568    -2.43838
96
Lattice="0.000000000 10.179764523 0.005177714 10.299648728 0.000000000 0.000000000 0.000000000 -1.756149623 -10.390483673" Properties=species:S:1:pos:R:3:forces:R:3:becs:R:9 energy="-1107.41515634"
Hf    2.79111    3.42302    -1.51512    0.035712    0.037705    -0.004258    5.28197    0.1676    0.17863    0.35894    5.3104    -0.20227    0.33736    -0.21586    4.79673
Hf    2.79111    2.54494    -6.71036    0.035706    0.037704    -0.004259    5.28196    0.16761    0.17864    0.35895    5.31046    -0.20225    0.33727    -0.21578    4.79665
Hf    7.94094    3.42302    -1.51512    0.035708    0.037708    -0.004263    5.28188    0.16762    0.17856    0.35892    5.31046    -0.20222    0.33735    -0.21581    4.79669
Hf    7.94094    2.54494    -6.71036    0.035710    0.037702    -0.004263    5.28195    0.16763    0.17859    0.35895    5.31048    -0.20229    0.33737    -0.21582    4.79664
Hf    2.79111    8.51290    -1.51253    0.035711    0.037706    -0.004264    5.28195    0.16761    0.17861    0.35891    5.31043    -0.20228    0.33735    -0.21577    4.79668
Hf    2.79111    7.63482    -6.70777    0.035705    0.037704    -0.004264    5.28189    0.16755    0.17861    0.35898    5.31043    -0.20226    0.33733    -0.21583    4.79672
Hf    7.94094    8.51290    -1.51253    0.035703    0.037705    -0.004255    5.28201    0.16759    0.1786    0.35895    5.31042    -0.20225    0.33729    -0.21581    4.79666
Hf    7.94094    7.63482    -6.70777    0.035709    0.037704    -0.004259    5.28194    0.16764    0.17865    0.35895    5.31046    -0.20236    0.33734    -0.21581    4.79669
Hf    0.21620    1.22783    -1.07992    0.035703    -0.037705    0.004270    5.28192    -0.1676    -0.17866    -0.35892    5.31046    -0.20232    -0.33733    -0.2158    4.79665
Hf    0.21620    0.34975    -6.27516    0.035701    -0.037706    0.004267    5.28194    -0.16761    -0.17861    -0.35893    5.3105    -0.20228    -0.33733    -0.2158    4.79666
Hf    5.36602    1.22783    -1.07992    0.035702    -0.037708    0.004264    5.28192    -0.1676    -0.1786    -0.35894    5.31045    -0.20225    -0.33738    -0.21583    4.79666
Hf    5.36602    0.34975    -6.27516    0.035706    -0.037707    0.004268    5.28194    -0.16755    -0.17859    -0.35895    5.31049    -0.20224    -0.33735    -0.21579    4.79667
Hf    0.21620    6.31771    -1.07733    0.035704    -0.037709    0.004266    5.28188    -0.16761    -0.17868    -0.35892    5.31046    -0.20227    -0.33732    -0.21578    4.79671
Hf    0.21620    5.43964    -6.27257    0.035702    -0.037701    0.004263    5.282    -0.16759    -0.17863    -0.35894    5.31043    -0.20236    -0.33735    -0.21581    4.79665
Hf    5.36602    6.31771    -1.07733    0.035705    -0.037706    0.004266    5.28194    -0.1676    -0.17863    -0.359    5.31042    -0.20229    -0.33733    -0.21584    4.79666
Hf    5.36602    5.43964    -6.27257    0.035703    -0.037705    0.004263    5.28195    -0.16759    -0.17867    -0.35897    5.31044    -0.20232    -0.33734    -0.21582    4.79661
Hf    2.35871    0.78879    -3.67754    -0.035701    -0.037709    0.004257    5.28195    0.1676    0.1786    0.35898    5.31049    -0.20224    0.33737    -0.21584    4.79666
Hf    2.35871    -0.08928    -8.87278    -0.035707    -0.037705    0.004257    5.28198    0.16759    0.17857    0.35893    5.31049    -0.20229    0.3373    -0.21579    4.79662
Hf    7.50854    0.78879    -3.67754    -0.035712    -0.037703    0.004261    5.282    0.16758    0.17858    0.35891    5.31045    -0.20233    0.33737    -0.21578    4.79666
Hf    7.50854    -0.08928    -8.87278    -0.035705    -0.037704    0.004266    5.28192    0.16759    0.17857    0.35892    5.31048    -0.20223    0.3374    -0.21582    4.79672
Hf    2.35871    5.87867    -3.67495    -0.035706    -0.037702    0.004260    5.28197    0.16761    0.17854    0.35891    5.31044    -0.20226    0.33735    -0.21582    4.79663
Hf    2.35871    5.00060    -8.87019    -0.035708    -0.037703    0.004259    5.28197    0.16763    0.17851    0.35895    5.31052    -0.20227    0.33737    -0.21577    4.79664
Hf    7.50854    5.87867    -3.67495    -0.035705    -0.037705    0.004260    5.28199    0.16761    0.1786    0.35891    5.31041    -0.20231    0.33732    -0.2158    4.79667
Hf    7.50854    5.00060    -8.87019    -0.035705    -0.037701    0.004262    5.2819    0.1676    0.17855    0.35897    5.31047    -0.20225    0.33734    -0.21575    4.79669
Hf    4.93363    2.98398    -4.11274    -0.035705    0.037700    -0.004263    5.28192    -0.16759    -0.17852    -0.35893    5.31046    -0.20224    -0.33737    -0.21579    4.79668
Hf    4.93363    2.10590    -9.30798    -0.035706    0.037704    -0.004269    5.28194    -0.16764    -0.17853    -0.35894    5.31048    -0.20229    -0.33737    -0.21584    4.79662
Hf    10.08345    2.98398    -4.11274    -0.035710    0.037705    -0.004268    5.28194    -0.16758    -0.17861    -0.35894    5.31046    -0.20228    -0.33736    -0.21576    4.79672
Hf    10.08345    2.10590    -9.30798    -0.035702    0.037704    -0.004264    5.28198    -0.16754    -0.1786    -0.35895    5.3104    -0.20229    -0.33739    -0.21579    4.79667
Hf    4.93363    8.07386    -4.11015    -0.035707    0.037705    -0.004263    5.28196    -0.16764    -0.17855    -0.35894    5.3104    -0.20222    -0.33738    -0.2158    4.79665
Hf    4.93363    7.19579    -9.30539    -0.035702    0.037705    -0.004269    5.28198    -0.16757    -0.1786    -0.35897    5.31039    -0.20229    -0.33732    -0.21581    4.79665
Hf    10.08345    8.07386    -4.11015    -0.035704    0.037703    -0.004270    5.28193    -0.16764    -0.17859    -0.35889    5.31053    -0.20232    -0.33735    -0.21578    4.79664
Hf    10.08345    7.19579    -9.30539    -0.035705    0.037704    -0.004263    5.28194    -0.16761    -0.17858    -0.35888    5.31045    -0.20231    -0.33732    -0.21575    4.79662
O    1.32381    2.79068    -0.10711    0.029673    0.026949    0.021237    -2.70944    -0.19045    0.35172    -0.12422    -2.37902    -0.01248    0.41906    0.03461    -2.53722
O    1.32381    1.91261    -5.30236    0.029672    0.026951    0.021237    -2.7094    -0.19043    0.35171    -0.12419    -2.37903    -0.01251    0.41902    0.03456    -2.53722
O    6.47364    2.79068    -0.10711    0.029671    0.026952    0.021238    -2.70944    -0.19049    0.35174    -0.1241    -2.37905    -0.01257    0.419    0.03463    -2.53723
O    6.47364    1.91261    -5.30236    0.029673    0.026952    0.021237    -2.70941    -0.19043    0.35172    -0.12411    -2.37907    -0.01251    0.41902    0.03462    -2.53726
O    1.32381    7.88057    -0.10452    0.029673    0.026952    0.021237    -2.70938    -0.19044    0.3517    -0.12411    -2.37904    -0.0125    0.41899    0.03461    -2.53722
O    1.32381    7.00249    -5.29977    0.029674    0.026950    0.021236    -2.70944    -0.19044    0.35171    -0.12417    -2.37906    -0.0125    0.41903    0.03463    -2.53724
O    6.47364    7.88057    -0.10452    0.029672    0.026949    0.021237    -2.70944    -0.19047    0.35173    -0.12417    -2.37903    -0.01254    0.41904    0.03462    -2.53723
O    6.47364    7.00249    -5.29977    0.029674    0.026949    0.021237    -2.70939    -0.1905    0.35174    -0.12418    -2.37905    -0.01252    0.41905    0.03456    -2.53721
O    3.89872    1.86016    -2.48792    0.029673    -0.026952    -0.021255    -2.70939    0.19045    -0.35168    0.12412    -2.37904    -0.01249    -0.41901    0.03466    -2.53731
O    3.89872    0.98209    -7.68316    0.029673    -0.026953    -0.021258    -2.70939    0.19042    -0.35171    0.12408    -2.37907    -0.01251    -0.41904    0.03468    -2.53724
O    9.04855    1.86016    -2.48792    0.029672    -0.026954    -0.021257    -2.70938    0.19042    -0.35174    0.12416    -2.37901    -0.0125    -0.41904    0.03463    -2.53726
O    9.04855    0.98209    -7.68316    0.029672    -0.026953    -0.021255    -2.70941    0.19047    -0.35168    0.12418    -2.37903    -0.01251    -0.41906    0.03462    -2.53724
O    3.89872    6.95004    -2.48533    0.029672    -0.026953    -0.021255    -2.70946    0.19043    -0.35173    0.12417    -2.37905    -0.01251    -0.41905    0.03467    -2.5373
O    3.89872    6.07197    -7.68057    0.029673    -0.026951    -0.021256    -2.70943    0.19041    -0.3517    0.12418    -2.37907    -0.01249    -0.41905    0.03463    -2.5373
O    9.04855    6.95004    -2.48533    0.029673    -0.026953    -0.021257    -2.7094    0.1904    -0.3517    0.12415    -2.37899    -0.0125    -0.41905    0.03467    -2.53729
O    9.04855    6.07197    -7.68057    0.029673    -0.026952    -0.021256    -2.70945    0.19047    -0.35175    0.12419    -2.37906    -0.0125    -0.41904    0.03464    -2.53726
O    3.82601    1.42112    -5.08554    -0.029673    -0.026949    -0.021236    -2.70937    -0.1904    0.35174    -0.12418    -2.37906    -0.01254    0.41906    0.03463    -2.53727
O    3.82601    0.54305    -10.28078    -0.029673    -0.026949    -0.021237    -2.70944    -0.19048    0.35178    -0.12417    -2.37903    -0.01258    0.41906    0.03458    -2.53721
O    8.97584    1.42112    -5.08554    -0.029674    -0.026949    -0.021237    -2.70941    -0.19038    0.35176    -0.12413    -2.3791    -0.01252    0.41903    0.03458    -2.53724
O    8.97584    0.54305    -10.28078    -0.029674    -0.026953    -0.021239    -2.70944    -0.19046    0.35173    -0.12421    -2.37914    -0.01248    0.41907    0.03464    -2.5373
O    3.82601    6.51101    -5.08295    -0.029672    -0.026950    -0.021240    -2.70943    -0.19046    0.35177    -0.1242    -2.37906    -0.01253    0.41905    0.03465    -2.5373
O    3.82601    5.63293    -10.27819    -0.029673    -0.026950    -0.021237    -2.70944    -0.19045    0.35177    -0.12416    -2.37907    -0.01256    0.41903    0.03461    -2.53724
O    8.97584    6.51101    -5.08295    -0.029673    -0.026948    -0.021238    -2.70944    -0.19044    0.35174    -0.12419    -2.37909    -0.01252    0.41907    0.0346    -2.53723
O    8.97584    5.63293    -10.27819    -0.029672    -0.026948    -0.021237    -2.7094    -0.19044    0.35173    -0.12417    -2.3791    -0.01253    0.41902    0.0346    -2.53726
O    1.25110    2.35165    -2.70473    -0.029673    0.026954    0.021259    -2.70941    0.19045    -0.35176    0.12417    -2.37906    -0.01256    -0.41909    0.03463    -2.53725
O    1.25110    1.47357    -7.89998    -0.029672    0.026952    0.021256    -2.7094    0.19044    -0.35179    0.12415    -2.37909    -0.01253    -0.419    0.03462    -2.53727
O    6.40093    2.35165    -2.70473    -0.029673    0.026952    0.021255    -2.7094    0.19042    -0.35174    0.12414    -2.37909    -0.01254    -0.419    0.0346    -2.53725
O    6.40093    1.47357    -7.89998    -0.029673    0.026954    0.021256    -2.70942    0.19043    -0.35177    0.12415    -2.37907    -0.01252    -0.41901    0.03466    -2.53729
O    1.25110    7.44153    -2.70215    -0.029674    0.026952    0.021256    -2.70941    0.19047    -0.35175    0.12419    -2.37907    -0.01251    -0.41903    0.03459    -2.53724
O    1.25110    6.56345    -7.89739    -0.029672    0.026953    0.021256    -2.70938    0.19044    -0.35175    0.12418    -2.37907    -0.01254    -0.41904    0.03457    -2.5372
O    6.40093    7.44153    -2.70215    -0.029671    0.026952    0.021258    -2.70937    0.19043    -0.35173    0.12415    -2.37906    -0.01257    -0.419    0.03461    -2.53723
O    6.40093    6.56345    -7.89739    -0.029672    0.026952    0.021257    -2.70945    0.19043    -0.35173    0.12416    -2.37908    -0.01256    -0.41904    0.03458    -2.53722
O    3.44548    4.16743    -3.39362    -0.014466    0.004120    -0.020709    -2.57252    1.27271    0.66121    1.05299    -2.93144    0.21479    0.67828    0.18119    -2.25942
O    3.44548    3.28935    -8.58886    -0.014467    0.004120    -0.020708    -2.57255    1.27271    0.66122    1.05299    -2.93142    0.21477    0.67836    0.1812    -2.25941
O    8.59531    4.16743    -3.39362    -0.014465    0.004121    -0.020710    -2.57255    1.2727    0.66122    1.05298    -2.93137    0.21477    0.67833    0.18118    -2.25945
O    8.59531    3.28935    -8.58886    -0.014467    0.004120    -0.020709    -2.57257    1.27272    0.66121    1.05299    -2.93138    0.21478    0.67834    0.18116    -2.25941
O    3.44548    9.25731    -3.39103    -0.014466    0.004121    -0.020707    -2.5725    1.27269    0.66116    1.05295    -2.93139    0.21477    0.67827    0.18119    -2.25937
O    3.44548    8.37923    -8.58627    -0.014466    0.004117    -0.020708    -2.57255    1.27272    0.66122    1.053    -2.93146    0.21474    0.67834    0.18117    -2.2594
O    8.59531    9.25731    -3.39103    -0.014466    0.004120    -0.020708    -2.57254    1.27271    0.6612    1.05297    -2.93137    0.21481    0.67834    0.18118    -2.25944
O    8.59531    8.37923    -8.58627    -0.014466    0.004122    -0.020709    -2.57251    1.27271    0.66119    1.05297    -2.93144    0.21481    0.67829    0.18121    -2.25943
O    0.87057    -0.39466    -4.39665    -0.014468    -0.004124    0.020704    -2.57254    -1.27267    -0.66118    -1.05298    -2.93143    0.21483    -0.67831    0.18119    -2.25941
O    0.87057    -1.27273    -9.59189    -0.014466    -0.004123    0.020701    -2.57252    -1.27271    -0.66116    -1.05298    -2.93143    0.21482    -0.67833    0.18116    -2.25936
O    6.02040    -0.39466    -4.39665    -0.014465    -0.004121    0.020704    -2.57255    -1.27271    -0.66118    -1.05298    -2.93139    0.21475    -0.67836    0.18116    -2.25941
O    6.02040    -1.27273    -9.59189    -0.014468    -0.004122    0.020701    -2.5725    -1.27267    -0.66117    -1.05298    -2.93139    0.2148    -0.67831    0.18122    -2.2594
O    0.87057    4.69523    -4.39406    -0.014466    -0.004120    0.020701    -2.57255    -1.27268    -0.6612    -1.05296    -2.93137    0.2148    -0.67833    0.18119    -2.25946
O    0.87057    3.81715    -9.58931    -0.014463    -0.004120    0.020704    -2.57255    -1.2727    -0.66115    -1.05299    -2.93144    0.21483    -0.67832    0.18118    -2.25942
O    6.02040    4.69523    -4.39406    -0.014467    -0.004122    0.020702    -2.57254    -1.2727    -0.6612    -1.05299    -2.93142    0.21479    -0.67834    0.18116    -2.25941
O    6.02040    3.81715    -9.58931    -0.014467    -0.004122    0.020702    -2.57251    -1.27269    -0.66125    -1.05299    -2.93143    0.21477    -0.67831    0.18121    -2.25948
O    1.70434    0.04438    -1.79903    0.014467    -0.004122    0.020710    -2.57249    1.27269    0.6612    1.053    -2.93141    0.21483    0.67834    0.18117    -2.25938
O    1.70434    -0.83369    -6.99427    0.014466    -0.004122    0.020710    -2.57251    1.27269    0.66124    1.05298    -2.93141    0.21482    0.67833    0.18119    -2.25941
O    6.85416    0.04438    -1.79903    0.014465    -0.004119    0.020710    -2.57254    1.27269    0.66122    1.053    -2.93137    0.21476    0.67835    0.18114    -2.25937
O    6.85416    -0.83369    -6.99427    0.014467    -0.004121    0.020709    -2.5725    1.27266    0.66123    1.05299    -2.93139    0.21483    0.67832    0.18121    -2.25942
O    1.70434    5.13426    -1.79644    0.014467    -0.004119    0.020709    -2.57249    1.27265    0.66123    1.05295    -2.93133    0.21485    0.67834    0.18117    -2.25944
O    1.70434    4.25619    -6.99168    0.014467    -0.004119    0.020710    -2.57257    1.27269    0.66125    1.05302    -2.9314    0.2148    0.67835    0.18117    -2.25938
O    6.85416    5.13426    -1.79644    0.014465    -0.004119    0.020708    -2.57258    1.27271    0.66128    1.05304    -2.93138    0.21478    0.67835    0.18113    -2.25942
O    6.85416    4.25619    -6.99168    0.014467    -0.004120    0.020708    -2.57253    1.27267    0.66126    1.05297    -2.93135    0.21482    0.67834    0.18118    -2.25947
O    4.27925    4.60646    -0.79600    0.014467    0.004123    -0.020699    -2.57255    -1.27268    -0.66127    -1.05296    -2.93137    0.2148    -0.67833    0.18121    -2.25945
O    4.27925    3.72839    -5.99124    0.014468    0.004122    -0.020704    -2.57253    -1.27268    -0.66125    -1.05297    -2.93137    0.21483    -0.67831    0.18122    -2.25942
O    9.42908    4.60646    -0.79600    0.014465    0.004122    -0.020705    -2.5725    -1.27268    -0.66122    -1.05299    -2.93141    0.21479    -0.6783    0.1812    -2.25942
O    9.42908    3.72839    -5.99124    0.014465    0.004122    -0.020703    -2.57254    -1.2727    -0.66121    -1.05301    -2.93138    0.21483    -0.67832    0.18117    -2.25937
O    4.27925    9.69635    -0.79341    0.014465    0.004121    -0.020701    -2.57254    -1.27267    -0.66122    -1.05298    -2.93135    0.21482    -0.67834    0.18117    -2.25942
O    4.27925    8.81827    -5.98865    0.014464    0.004119    -0.020705    -2.57252    -1.2727    -0.66122    -1.05297    -2.93137    0.21481    -0.67834    0.18117    -2.2594
O    9.42908    9.69635    -0.79341    0.014468    0.004122    -0.020700    -2.57255    -1.2727    -0.66122    -1.05296    -2.93134    0.21486    -0.67832    0.18118    -2.25941
O    9.42908    8.81827    -5.98865    0.014465    0.004121    -0.020702    -2.57255    -1.27269    -0.66125    -1.05303    -2.9314    0.21481    -0.67835    0.18119    -2.25942
96
Lattice="10.064318000 0.000000000 0.000000000 0.000000000 10.064318000 0.000000000 0.000000000 0.000000000 10.064318000" Properties=species:S:1:pos:R:3:forces:R:3:becs:R:9 energy="-1101.01630777"
Hf    0.00000    0.00000    0.00000    -0.000023    0.000018    0.000014    5.51842    -5e-05    -5e-05    -1e-05    5.51842    -0.0    -0.0    1e-05    5.51824
Hf    0.00000    0.00000    5.03216    -0.000022    -0.000020    -0.000013    5.51832    1e-05    8e-05    -1e-05    5.51829    3e-05    -3e-05    -1e-05    5.5184
Hf    0.00000    5.03216    0.00000    0.000003    0.000031    -0.000034    5.51832    -1e-05    -3e-05    -3e-05    5.51831    -4e-05    4e-05    6e-05    5.51838
Hf    0.00000    5.03216    5.03216    -0.000002    -0.000025    0.000032    5.51842    3e-05    -8e-05    4e-05    5.51831    -1e-05    -0.0    3e-05    5.51834
Hf    5.03216    0.00000    0.00000    -0.000004    0.000011    -0.000031    5.51834    -2e-05    -0.0    -0.0    5.51832    4e-05    3e-05    -2e-05    5.51831
Hf    5.03216    0.00000    5.03216    -0.000032    0.000028    0.000004    5.51835    0.0    -1e-05    -1e-05    5.51834    0.0    -2e-05    1e-05    5.51835
Hf    5.03216    5.03216    0.00000    -0.000007    0.000022    0.000031    5.51827    1e-05    1e-05    7e-05    5.51842    2e-05    -2e-05    3e-05    5.5183
Hf    5.03216    5.03216    5.03216    -0.000001    -0.000001    -0.000030    5.51843    4e-05    -1e-05    -4e-05    5.51832    -2e-05    -1e-05    -6e-05    5.51832
Hf    0.00000    2.51608    2.51608    -0.000027    -0.000027    0.000015    5.51832    0.0    -3e-05    2e-05    5.51833    6e-05    -1e-05    -6e-05    5.51834
Hf    0.00000    2.51608    7.54824    0.000037    0.000051    0.000009    5.51836    -4e-05    -5e-05    -1e-05    5.51836    4e-05    1e-05    1e-05    5.51832
Hf    0.00000    7.54824    2.51608    -0.000048    -0.000007    -0.000021    5.51837    1e-05    1e-05    -1e-05    5.5183    -2e-05    4e-05    5e-05    5.51828
Hf    0.00000    7.54824    7.54824    -0.000000    -0.000020    -0.000008    5.51839    -3e-05    -4e-05    -2e-05    5.51829    -6e-05    -5e-05    -3e-05    5.51839
Hf    5.03216    2.51608    2.51608    -0.000029    -0.000013    0.000014    5.51837    -5e-05    -1e-05    2e-05    5.51824    2e-05    4e-05    -4e-05    5.51835
Hf    5.03216    2.51608    7.54824    0.000001    -0.000031    -0.000014    5.51838    6e-05    5e-05    -2e-05    5.5183    6e-05    -1e-05    -1e-05    5.51838
Hf    5.03216    7.54824    2.51608    -0.000000    -0.000047    0.000007    5.51838    6e-05    -0.0    -6e-05    5.51828    -3e-05    3e-05    3e-05    5.51837
Hf    5.03216    7.54824    7.54824    -0.000012    0.000034    0.000022    5.51835    5e-05    4e-05    -2e-05    5.51838    3e-05    -0.00011    3e-05    5.51831
Hf    2.51608    0.00000    2.51608    0.000026    0.000031    -0.000003    5.51833    0.0    2e-05    -6e-05    5.51831    -7e-05    1e-05    -0.0    5.51834
Hf    2.51608    0.00000    7.54824    0.000026    0.000027    -0.000022    5.51835    -0.0    -1e-05    -6e-05    5.51838    1e-05    -2e-05    5e-05    5.51834
Hf    2.51608    5.03216    2.51608    0.000041    0.000007    0.000008    5.51838    2e-05    -2e-05    3e-05    5.5183    5e-05    7e-05    -1e-05    5.51828
Hf    2.51608    5.03216    7.54824    -0.000064    0.000006    0.000018    5.51836    -6e-05    1e-05    6e-05    5.5184    -0.0    -7e-05    2e-05    5.51823
Hf    7.54824    0.00000    2.51608    0.000040    0.000017    0.000023    5.51831    -7e-05    -2e-05    5e-05    5.51833    1e-05    1e-05    -0.0    5.51837
Hf    7.54824    0.00000    7.54824    -0.000013    -0.000035    0.000028    5.51835    -6e-05    -6e-05    2e-05    5.51836    -1e-05    0.0    7e-05    5.51835
Hf    7.54824    5.03216    2.51608    0.000004    0.000045    -0.000012    5.5184    4e-05    3e-05    -2e-05    5.5183    2e-05    4e-05    -7e-05    5.5183
Hf    7.54824    5.03216    7.54824    0.000028    -0.000033    -0.000012    5.51838    6e-05    -2e-05    -8e-05    5.51833    0.00013    -1e-05    3e-05    5.51835
Hf    2.51608    2.51608    0.00000    0.000001    0.000003    -0.000015    5.51838    1e-05    -1e-05    1e-05    5.51833    -1e-05    1e-05    -0.0    5.51835
Hf    2.51608    2.51608    5.03216    0.000008    -0.000032    0.000013    5.51841    -3e-05    -2e-05    0.0    5.51827    3e-05    -2e-05    -1e-05    5.51835
Hf    2.51608    7.54824    0.00000    0.000000    -0.000019    -0.000013    5.51832    -2e-05    5e-05    4e-05    5.51832    5e-05    2e-05    1e-05    5.51834
Hf    2.51608    7.54824    5.03216    0.000016    -0.000025    0.000016    5.51841    -8e-05    -7e-05    5e-05    5.51829    2e-05    -4e-05    3e-05    5.51837
Hf    7.54824    2.51608    0.00000    0.000011    -0.000038    -0.000008    5.51837    5e-05    3e-05    -4e-05    5.51829    4e-05    3e-05    -4e-05    5.51835
Hf    7.54824    2.51608    5.03216    -0.000002    0.000038    -0.000018    5.51842    2e-05    1e-05    -1e-05    5.51833    2e-05    -5e-05    8e-05    5.51832
Hf    7.54824    7.54824    0.00000    0.000012    -0.000031    0.000017    5.51832    0.0    -4e-05    -0.0    5.51832    1e-05    0.0    -2e-05    5.51833
Hf    7.54824    7.54824    5.03216    0.000034    0.000038    -0.000020    5.51841    3e-05    -2e-05    -1e-05    5.51828    -2e-05    2e-05    3e-05    5.51837
O    1.25804    1.25804    3.77412    0.000001    -0.000007    0.000007    -2.75914    -1e-05    2e-05    3e-05    -2.75911    -6e-05    2e-05    -2e-05    -2.75918
O    1.25804    1.25804    8.80628    0.000008    0.000006    -0.000008    -2.75918    -2e-05    7e-05    -1e-05    -2.75924    -0.0    -1e-05    -1e-05    -2.75916
O    1.25804    6.29020    3.77412    0.000003    0.000002    -0.000005    -2.75922    -0.0    6e-05    -4e-05    -2.75914    -3e-05    2e-05    -9e-05    -2.75916
O    1.25804    6.29020    8.80628    -0.000007    -0.000002    0.000003    -2.75913    9e-05    -3e-05    -3e-05    -2.75917    5e-05    -1e-05    -0.0    -2.75916
O    6.29020    1.25804    3.77412    -0.000003    -0.000001    -0.000008    -2.75917    -4e-05    -6e-05    -6e-05    -2.75916    -0.0    -7e-05    -0.0    -2.75918
O    6.29020    1.25804    8.80628    -0.000005    -0.000012    0.000006    -2.75922    -5e-05    -3e-05    0.0    -2.75923    2e-05    -1e-05    3e-05    -2.75924
O    6.29020    6.29020    3.77412    -0.000000    0.000005    -0.000013    -2.75925    -9e-05    3e-05    -2e-05    -2.75912    5e-05    -1e-05    4e-05    -2.75919
O    6.29020    6.29020    8.80628    0.000004    0.000008    0.000015    -2.75914    -2e-05    -3e-05    2e-05    -2.75924    -0.0    4e-05    -0.0    -2.75921
O    1.25804    3.77412    3.77412    0.000008    -0.000007    0.000008    -2.75922    4e-05    2e-05    -4e-05    -2.75913    -5e-05    -2e-05    -1e-05    -2.75918
O    1.25804    3.77412    8.80628    -0.000001    0.000008    0.000003    -2.75919    6e-05    -5e-05    -4e-05    -2.75919    3e-05    3e-05    -6e-05    -2.75913
O    1.25804    8.80628    3.77412    -0.000005    -0.000004    -0.000006    -2.75917    -0.0    4e-05    -1e-05    -2.75914    3e-05    3e-05    -2e-05    -2.75919
O    1.25804    8.80628    8.80628    0.000013    0.000003    -0.000005    -2.75922    9e-05    9e-05    4e-05    -2.75916    2e-05    1e-05    -1e-05    -2.75915
O    6.29020    3.77412    3.77412    -0.000005    -0.000001    -0.000008    -2.75925    -0.0    1e-05    1e-05    -2.75911    -1e-05    0.0    9e-05    -2.75914
O    6.29020    3.77412    8.80628    -0.000005    -0.000010    -0.000002    -2.75916    -1e-05    -3e-05    5e-05    -2.75918    -6e-05    1e-05    1e-05    -2.75916
O    6.29020    8.80628    3.77412    -0.000001    0.000012    -0.000001    -2.75915    -5e-05    1e-05    3e-05    -2.75916    -1e-05    -1e-05    2e-05    -2.75915
O    6.29020    8.80628    8.80628    -0.000006    -0.000000    0.000011    -2.7592    -5e-05    4e-05    -1e-05    -2.75923    -3e-05    0.0    -3e-05    -2.75918
O    1.25804    3.77412    1.25804    0.000004    0.000009    -0.000006    -2.75918    -1e-05    4e-05    -0.0    -2.75913    1e-05    -4e-05    2e-05    -2.7592
O    1.25804    3.77412    6.29020    0.000001    -0.000005    0.000002    -2.75922    -0.0    2e-05    -2e-05    -2.75917    -4e-05    1e-05    1e-05    -2.7591
O    1.25804    8.80628    1.25804    0.000001    -0.000006    0.000007    -2.75919    3e-05    -0.0    2e-05    -2.75916    4e-05    -4e-05    -7e-05    -2.7591
O    1.25804    8.80628    6.29020    0.000003    0.000005    -0.000003    -2.75918    1e-05    5e-05    -2e-05    -2.75913    -2e-05    3e-05    -4e-05    -2.75925
O    6.29020    3.77412    1.25804    -0.000007    0.000002    0.000013    -2.75912    -2e-05    1e-05    4e-05    -2.75919    -5e-05    2e-05    1e-05    -2.75916
O    6.29020    3.77412    6.29020    0.000001    -0.000002    -0.000008    -2.75925    -5e-05    -7e-05    1e-05    -2.75915    -7e-05    0.0    -2e-05    -2.75917
O    6.29020    8.80628    1.25804    0.000003    -0.000002    0.000003    -2.75918    -0.0    4e-05    1e-05    -2.75914    -2e-05    -2e-05    5e-05    -2.7592
O    6.29020    8.80628    6.29020    -0.000005    0.000006    -0.000006    -2.75917    -2e-05    2e-05    -0.00011    -2.75908    3e-05    2e-05    0.0    -2.75915
O    1.25804    1.25804    1.25804    0.000005    -0.000001    -0.000001    -2.75917    -3e-05    2e-05    -1e-05    -2.75914    -2e-05    1e-05    3e-05    -2.75917
O    1.25804    1.25804    6.29020    0.000016    -0.000001    0.000001    -2.75915    3e-05    2e-05    6e-05    -2.75915    1e-05    2e-05    -5e-05    -2.75923
O    1.25804    6.29020    1.25804    -0.000006    0.000002    -0.000005    -2.75921    1e-05    0.0    -3e-05    -2.75914    -0.0    -6e-05    -1e-05    -2.75914
O    1.25804    6.29020    6.29020    0.000003    -0.000003    0.000004    -2.75926    1e-05    4e-05    4e-05    -2.75915    1e-05    9e-05    -4e-05    -2.75914
O    6.29020    1.25804    1.25804    -0.000006    -0.000004    0.000005    -2.75912    5e-05    3e-05    -5e-05    -2.75911    1e-05    -3e-05    5e-05    -2.75919
O    6.29020    1.25804    6.29020    -0.000019    0.000001    -0.000003    -2.75912    -0.0    -1e-05    2e-05    -2.75909    -1e-05    2e-05    -8e-05    -2.75917
O    6.29020    6.29020    1.25804    0.000006    0.000001    0.000001    -2.7592    -2e-05    6e-05    -1e-05    -2.75923    2e-05    1e-05    6e-05    -2.75921
O    6.29020    6.29020    6.29020    -0.000002    0.000001    -0.000002    -2.75925    -2e-05    2e-05    0.00013    -2.75915    2e-05    5e-05    2e-05    -2.75918
O    3.77412    1.25804    1.25804    0.000007    0.000003    -0.000001    -2.75911    -1e-05    2e-05    -3e-05    -2.75915    2e-05    -1e-05    4e-05    -2.75916
O    3.77412    1.25804    6.29020    -0.000006    -0.000009    -0.000006    -2.75912    -6e-05    -6e-05    -2e-05    -2.75917    -2e-05    -3e-05    1e-05    -2.75915
O    3.77412    6.29020    1.25804    0.000004    0.000002    0.000010    -2.75913    -2e-05    1e-05    1e-05    -2.75921    -0.0    -4e-05    -5e-05    -2.75919
O    3.77412    6.29020    6.29020    -0.000007    0.000003    -0.000001    -2.75925    1e-05    -7e-05    -4e-05    -2.75918    -0.0    7e-05    1e-05    -2.7591
O    8.80628    1.25804    1.25804    -0.000007    -0.000008    0.000011    -2.75914    3e-05    -1e-05    -2e-05    -2.75915    -5e-05    -6e-05    2e-05    -2.75916
O    8.80628    1.25804    6.29020    0.000008    -0.000000    -0.000002    -2.75914    -2e-05    1e-05    -3e-05    -2.75916    5e-05    -1e-05    -5e-05    -2.75914
O    8.80628    6.29020    1.25804    -0.000003    0.000002    -0.000004    -2.7592    -6e-05    0.0    2e-05    -2.75917    2e-05    -5e-05    2e-05    -2.75918
O    8.80628    6.29020    6.29020    0.000009    0.000005    -0.000003    -2.75924    1e-05    2e-05    1e-05    -2.75913    3e-05    4e-05    -0.0    -2.75915
O    3.77412    3.77412    1.25804    0.000008    -0.000006    0.000005    -2.75918    7e-05    -1e-05    -4e-05    -2.75924    -5e-05    -4e-05    -1e-05    -2.75912
O    3.77412    3.77412    6.29020    -0.000001    -0.000010    -0.000000    -2.75923    4e-05    -0.0    3e-05    -2.75921    -2e-05    0.0    -3e-05    -2.75915
O    3.77412    8.80628    1.25804    0.000005    0.000001    -0.000006    -2.75919    -2e-05    -3e-05    5e-05    -2.75917    -1e-05    -3e-05    2e-05    -2.7592
O    3.77412    8.80628    6.29020    0.000001    0.000015    0.000002    -2.75917    4e-05    -6e-05    3e-05    -2.75919    4e-05    -3e-05    -2e-05    -2.75919
O    8.80628    3.77412    1.25804    -0.000005    0.000011    -0.000004    -2.75914    2e-05    -2e-05    2e-05    -2.75917    -3e-05    0.0    3e-05    -2.75919
O    8.80628    3.77412    6.29020    0.000001    -0.000001    0.000000    -2.75925    0.0    3e-05    6e-05    -2.75916    -7e-05    2e-05    -3e-05    -2.7592
O    8.80628    8.80628    1.25804    -0.000008    -0.000007    0.000009    -2.75918    -4e-05    8e-05    -6e-05    -2.75918    1e-05    0.0    2e-05    -2.75915
O    8.80628    8.80628    6.29020    0.000001    -0.000003    -0.000004    -2.75916    3e-05    -1e-05    4e-05    -2.75911    3e-05    2e-05    -2e-05    -2.75924
O    3.77412    3.77412    3.77412    0.000002    -0.000006    -0.000008    -2.75927    -1e-05    1e-05    -5e-05    -2.75908    -8e-05    -1e-05    2e-05    -2.75912
O    3.77412    3.77412    8.80628    -0.000006    0.000000    0.000007    -2.75915    -3e-05    1e-05    -1e-05    -2.7592    -1e-05    1e-05    -1e-05    -2.75911
O    3.77412    8.80628    3.77412    0.000007    -0.000004    0.000000    -2.75914    -1e-05    -1e-05    1e-05    -2.75913    -0.0    -0.0    -5e-05    -2.75919
O    3.77412    8.80628    8.80628    0.000001    0.000011    0.000001    -2.7592    -1e-05    -0.00011    2e-05    -2.75921    -4e-05    4e-05    0.0    -2.75915
O    8.80628    3.77412    3.77412    -0.000007    0.000005    -0.000003    -2.75925    3e-05    3e-05    0.0    -2.75917    -3e-05    -3e-05    -5e-05    -2.75915
O    8.80628    3.77412    8.80628    0.000013    0.000002    0.000003    -2.7592    2e-05    1e-05    5e-05    -2.75918    -3e-05    -7e-05    2e-05    -2.75918
O    8.80628    8.80628    3.77412    -0.000001    0.000007    -0.000006    -2.75913    -4e-05    -5e-05    -0.0    -2.75914    -1e-05    -3e-05    -4e-05    -2.75922
O    8.80628    8.80628    8.80628    -0.000007    -0.000014    0.000004    -2.75924    -2e-05    3e-05    -0.00011    -2.75922    6e-05    9e-05    2e-05    -2.75919
O    3.77412    1.25804    3.77412    0.000007    0.000002    0.000005    -2.75915    -0.0    2e-05    4e-05    -2.7591    -1e-05    -1e-05    3e-05    -2.75915
O    3.77412    1.25804    8.80628    0.000006    -0.000005    -0.000006    -2.75922    6e-05    -6e-05    4e-05    -2.75919    -1e-05    -3e-05    -2e-05    -2.75916
O    3.77412    6.29020    3.77412    0.000005    -0.000002    -0.000004    -2.75921    5e-05    2e-05    3e-05    -2.75914    2e-05    -2e-05    2e-05    -2.75917
O    3.77412    6.29020    8.80628    -0.000003    0.000001    0.000002    -2.75909    0.0    -2e-05    -6e-05    -2.7592    -0.0    6e-05    -0.0    -2.7591
O    8.80628    1.25804    3.77412    -0.000010    -0.000007    -0.000005    -2.75914    2e-05    -1e-05    -0.0    -2.75917    3e-05    5e-05    0.0    -2.75919
O    8.80628    1.25804    8.80628    -0.000003    0.000007    0.000004    -2.75915    4e-05    3e-05    1e-05    -2.75921    -0.0    1e-05    1e-05    -2.75914
O    8.80628    6.29020    3.77412    -0.000002    0.000002    -0.000013    -2.75921    1e-05    -2e-05    3e-05    -2.75912    1e-05    1e-05    -0.0    -2.75909
O    8.80628    6.29020    8.80628    0.000000    -0.000003    0.000013    -2.7591    -1e-05    7e-05    9e-05    -2.75916    -3e-05    3e-05    -2e-05    -2.75922
96
Lattice="10.062003678 0.000000000 0.000000000 0.000000000 10.396418206 0.000000000 0.000000000 0.000000000 9.967858750" Properties=species:S:1:pos:R:3:forces:R:3:becs:R:9 energy="-1105.96421441"
Hf    3.79540    2.41569    1.14943    0.004141    -0.032448    -0.010326    4.94689    -0.04359    -0.25564    -0.1247    5.2601    -0.02108    -0.05216    -0.37645    5.44428
Hf    3.79540    7.61390    1.14943    0.004139    -0.032443    -0.010326    4.94682    -0.0436    -0.25559    -0.12469    5.26013    -0.02106    -0.05214    -0.37643    5.44432
Hf    8.82640    2.41569    1.14943    0.004139    -0.032448    -0.010326    4.94692    -0.0436    -0.25562    -0.12471    5.2601    -0.02102    -0.05216    -0.37646    5.44427
Hf    8.82640    7.61390    1.14943    0.004140    -0.032448    -0.010326    4.94689    -0.0436    -0.25558    -0.12473    5.26009    -0.02106    -0.05217    -0.37643    5.44432
Hf    1.27990    2.78252    3.83450    0.004138    0.032443    0.010327    4.9469    0.04357    0.25562    0.12476    5.26014    -0.021    0.05211    -0.37641    5.44421
Hf    1.27990    7.98072    3.83450    0.004139    0.032445    0.010326    4.94692    0.04358    0.25565    0.12468    5.26009    -0.021    0.05214    -0.3764    5.44428
Hf    6.31090    2.78252    3.83450    0.004139    0.032446    0.010328    4.94684    0.0436    0.25564    0.12473    5.2601    -0.02107    0.05214    -0.37644    5.44427
Hf    6.31090    7.98072    3.83450    0.004139    0.032443    0.010327    4.94691    0.04359    0.25564    0.12473    5.26014    -0.02105    0.05222    -0.37643    5.44428
Hf    3.75110    5.01480    8.81843    -0.004138    -0.032445    0.010323    4.94689    0.04358    -0.2556    0.12472    5.26012    0.021    -0.05216    0.37642    5.44424
Hf    3.75110    10.21301    8.81843    -0.004139    -0.032445    0.010323    4.94686    0.04362    -0.25557    0.12477    5.26016    0.02103    -0.05217    0.37648    5.4443
Hf    8.78211    5.01480    8.81843    -0.004140    -0.032447    0.010325    4.94685    0.0436    -0.25559    0.12474    5.26016    0.021    -0.05214    0.37643    5.44426
Hf    8.78211    10.21301    8.81843    -0.004139    -0.032445    0.010325    4.94687    0.04365    -0.2556    0.12473    5.26014    0.02103    -0.05216    0.37644    5.44421
Hf    1.23560    0.18341    6.13336    -0.004139    0.032447    -0.010327    4.94691    -0.0436    0.25558    -0.12469    5.26009    0.02107    0.05215    0.37639    5.44426
Hf    1.23560    5.38162    6.13336    -0.004138    0.032446    -0.010326    4.94686    -0.04359    0.25561    -0.12472    5.2601    0.02104    0.0522    0.37647    5.44431
Hf    6.26660    0.18341    6.13336    -0.004140    0.032446    -0.010326    4.94691    -0.04354    0.25565    -0.12472    5.26008    0.02109    0.05219    0.37639    5.44427
Hf    6.26660    5.38162    6.13336    -0.004141    0.032447    -0.010330    4.94692    -0.04358    0.25558    -0.12472    5.26017    0.02101    0.05217    0.37641    5.4443
Hf    1.23560    2.78252    8.81843    -0.004142    0.032443    0.010325    4.94692    -0.04361    -0.25562    -0.12473    5.26011    -0.02105    -0.0522    -0.37643    5.44422
Hf    1.23560    7.98072    8.81843    -0.004138    0.032446    0.010325    4.94691    -0.04363    -0.25559    -0.12475    5.26014    -0.02104    -0.05215    -0.37643    5.44425
Hf    6.26660    2.78252    8.81843    -0.004138    0.032443    0.010323    4.94686    -0.04364    -0.2556    -0.12472    5.26013    -0.02104    -0.05217    -0.37645    5.44422
Hf    6.26660    7.98072    8.81843    -0.004138    0.032443    0.010326    4.9469    -0.0436    -0.2556    -0.12474    5.26012    -0.02106    -0.05218    -0.3764    5.44429
Hf    3.75110    2.41569    6.13336    -0.004139    -0.032448    -0.010328    4.94695    0.0436    0.25563    0.12471    5.26007    -0.02105    0.05221    -0.37645    5.4442
Hf    3.75110    7.61390    6.13336    -0.004138    -0.032447    -0.010327    4.94689    0.04363    0.25558    0.12471    5.26014    -0.02101    0.05218    -0.37646    5.44426
Hf    8.78211    2.41569    6.13336    -0.004140    -0.032445    -0.010327    4.94688    0.04358    0.25559    0.12469    5.26005    -0.02104    0.05219    -0.37646    5.44428
Hf    8.78211    7.61390    6.13336    -0.004141    -0.032445    -0.010325    4.94688    0.04357    0.25558    0.12471    5.26016    -0.02106    0.05219    -0.37639    5.44423
Hf    1.27990    0.18341    1.14943    0.004139    0.032447    -0.010327    4.94685    0.0436    -0.25561    0.12469    5.26007    0.02104    -0.05215    0.37644    5.44433
Hf    1.27990    5.38162    1.14943    0.004137    0.032447    -0.010325    4.94688    0.04363    -0.2556    0.1247    5.26012    0.02104    -0.05217    0.37643    5.44424
Hf    6.31090    0.18341    1.14943    0.004137    0.032446    -0.010326    4.94688    0.04361    -0.25561    0.12471    5.26014    0.02104    -0.05218    0.37643    5.44422
Hf    6.31090    5.38162    1.14943    0.004141    0.032447    -0.010325    4.94686    0.04357    -0.2556    0.12475    5.26018    0.02105    -0.05221    0.37645    5.44426
Hf    3.79540    5.01480    3.83450    0.004142    -0.032444    0.010329    4.9469    -0.04361    0.25557    -0.12474    5.26014    0.02102    0.05211    0.37643    5.44427
Hf    3.79540    10.21301    3.83450    0.004140    -0.032444    0.010328    4.94683    -0.04363    0.25559    -0.12475    5.26018    0.02105    0.05217    0.37642    5.44422
Hf    8.82640    5.01480    3.83450    0.004139    -0.032445    0.010327    4.94689    -0.04358    0.25559    -0.12478    5.26008    0.02107    0.05214    0.37641    5.44426
Hf    8.82640    10.21301    3.83450    0.004139    -0.032444    0.010325    4.94687    -0.04359    0.25559    -0.12477    5.26016    0.02101    0.05218    0.37639    5.44422
O    5.01906    1.35867    4.75623    -0.004943    -0.006736    -0.008129    -2.50028    -0.32774    0.03091    -0.28436    -2.72544    0.01411    0.07916    0.04368    -2.49762
O    5.01906    6.55688    4.75623    -0.004946    -0.006738    -0.008130    -2.50029    -0.3278    0.03092    -0.28435    -2.72542    0.01411    0.07918    0.04368    -2.4976
O    10.05006    1.35867    4.75623    -0.004945    -0.006733    -0.008130    -2.5003    -0.32782    0.03091    -0.28434    -2.72542    0.01412    0.07921    0.04371    -2.49754
O    10.05006    6.55688    4.75623    -0.004944    -0.006739    -0.008128    -2.50032    -0.3278    0.03092    -0.28433    -2.72537    0.0141    0.07921    0.04369    -2.49761
O    2.50356    3.83954    0.22770    -0.004945    0.006738    0.008104    -2.50029    0.32778    -0.0309    0.28436    -2.7254    0.0141    -0.0792    0.04367    -2.49758
O    2.50356    9.03775    0.22770    -0.004945    0.006738    0.008101    -2.50027    0.32778    -0.03095    0.28436    -2.72541    0.01412    -0.07919    0.04372    -2.49759
O    7.53456    3.83954    0.22770    -0.004942    0.006736    0.008101    -2.5003    0.32777    -0.03096    0.28432    -2.72544    0.01406    -0.07925    0.04369    -2.49764
O    7.53456    9.03775    0.22770    -0.004946    0.006737    0.008102    -2.50029    0.32776    -0.03094    0.28436    -2.72538    0.01412    -0.07924    0.04374    -2.49754
O    2.52745    3.95778    5.21163    0.004946    -0.006736    0.008111    -2.50031    0.3278    0.03093    0.28432    -2.72541    -0.01412    0.07924    -0.04376    -2.49755
O    2.52745    9.15599    5.21163    0.004946    -0.006736    0.008113    -2.50031    0.32776    0.03096    0.28436    -2.72541    -0.01414    0.07921    -0.04374    -2.49756
O    7.55845    3.95778    5.21163    0.004948    -0.006738    0.008110    -2.50029    0.32777    0.03092    0.28435    -2.72543    -0.01409    0.07922    -0.0437    -2.49757
O    7.55845    9.15599    5.21163    0.004946    -0.006737    0.008113    -2.5003    0.32778    0.03092    0.2844    -2.72545    -0.01412    0.07919    -0.04372    -2.4975
O    0.01195    1.24043    9.74016    0.004945    0.006740    -0.008086    -2.50029    -0.32777    -0.03094    -0.28434    -2.72538    -0.0141    -0.0792    -0.04371    -2.49753
O    0.01195    6.43864    9.74016    0.004948    0.006736    -0.008083    -2.50029    -0.32777    -0.03094    -0.28432    -2.72543    -0.01406    -0.07921    -0.04367    -2.49754
O    5.04295    1.24043    9.74016    0.004946    0.006739    -0.008083    -2.5003    -0.32778    -0.03089    -0.28431    -2.72543    -0.01406    -0.07924    -0.04369    -2.49757
O    5.04295    6.43864    9.74016    0.004945    0.006736    -0.008087    -2.50028    -0.32776    -0.03095    -0.28431    -2.72545    -0.01409    -0.07919    -0.04375    -2.49756
O    0.01195    3.83954    5.21163    0.004946    0.006741    0.008130    -2.5003    -0.32776    0.03093    -0.28432    -2.72539    0.01407    0.07925    0.04373    -2.49752
O    0.01195    9.03775    5.21163    0.004943    0.006736    0.008130    -2.5003    -0.32776    0.03095    -0.28434    -2.72539    0.01413    0.07922    0.04371    -2.4975
O    5.04295    3.83954    5.21163    0.004943    0.006737    0.008127    -2.50033    -0.32778    0.03098    -0.28437    -2.72541    0.01408    0.07927    0.04373    -2.49754
O    5.04295    9.03775    5.21163    0.004946    0.006738    0.008127    -2.50031    -0.32778    0.03095    -0.28429    -2.72544    0.01406    0.07927    0.04371    -2.49752
O    2.52745    1.35867    9.74016    0.004945    -0.006733    -0.008102    -2.50029    0.32776    -0.03091    0.28433    -2.72544    0.01411    -0.07921    0.04371    -2.49754
O    2.52745    6.55688    9.74016    0.004946    -0.006737    -0.008102    -2.50031    0.32779    -0.03095    0.28433    -2.7254    0.01409    -0.07923    0.04373    -2.49751
O    7.55845    1.35867    9.74016    0.004944    -0.006735    -0.008103    -2.50027    0.32779    -0.0309    0.28436    -2.72539    0.01412    -0.07919    0.04372    -2.49756
O    7.55845    6.55688    9.74016    0.004944    -0.006738    -0.008104    -2.50024    0.32774    -0.03092    0.28432    -2.7254    0.01411    -0.07921    0.04367    -2.4975
O    2.50356    1.24043    4.75623    -0.004944    0.006739    -0.008111    -2.50031    0.3278    0.03089    0.28433    -2.72542    -0.01408    0.07919    -0.0437    -2.49755
O    2.50356    6.43864    4.75623    -0.004948    0.006733    -0.008110    -2.50032    0.3278    0.03093    0.28432    -2.72542    -0.01411    0.07923    -0.04368    -2.49756
O    7.53456    1.24043    4.75623    -0.004947    0.006735    -0.008114    -2.5003    0.32781    0.03088    0.28434    -2.72545    -0.01404    0.07917    -0.04363    -2.49758
O    7.53456    6.43864    4.75623    -0.004946    0.006739    -0.008113    -2.50031    0.32783    0.03091    0.28433    -2.72543    -0.01409    0.0792    -0.04368    -2.49757
O    5.01906    3.95778    0.22770    -0.004947    -0.006739    0.008086    -2.50028    -0.32779    -0.03087    -0.28435    -2.7254    -0.01407    -0.07922    -0.04371    -2.49753
O    5.01906    9.15599    0.22770    -0.004946    -0.006738    0.008084    -2.50031    -0.32782    -0.03096    -0.28438    -2.72546    -0.01408    -0.07923    -0.04367    -2.49753
O    10.05006    3.95778    0.22770    -0.004944    -0.006736    0.008084    -2.50031    -0.3278    -0.03094    -0.28434    -2.72541    -0.0141    -0.07922    -0.04372    -2.49755
O    10.05006    9.15599    0.22770    -0.004946    -0.006736    0.008085    -2.50032    -0.32777    -0.03096    -0.28434    -2.72544    -0.01412    -0.07925    -0.04372    -2.49757
O    3.14780    3.25617    2.88671    0.002455    -0.001566    0.044805    -2.44663    -0.32961    0.58892    -0.33171    -2.53471    -0.96432    0.64574    -0.77858    -2.9467
O    3.14780    8.45438    2.88671    0.002455    -0.001568    0.044802    -2.44656    -0.32959    0.58895    -0.33169    -2.53473    -0.96433    0.64569    -0.77863    -2.94672
O    8.17880    3.25617    2.88671    0.002453    -0.001568    0.044803    -2.44661    -0.32963    0.58888    -0.33175    -2.53473    -0.9643    0.6457    -0.77859    -2.94673
O    8.17880    8.45438    2.88671    0.002452    -0.001567    0.044805    -2.4466    -0.32966    0.58888    -0.33175    -2.53471    -0.96428    0.6457    -0.77858    -2.94668
O    0.63230    1.94204    2.09722    0.002456    0.001564    -0.044798    -2.44658    0.32962    -0.5889    0.33171    -2.53471    -0.96435    -0.64568    -0.77865    -2.94666
O    0.63230    7.14025    2.09722    0.002455    0.001565    -0.044798    -2.44661    0.32962    -0.58891    0.33175    -2.5347    -0.96432    -0.64571    -0.77865    -2.94673
O    5.66330    1.94204    2.09722    0.002454    0.001565    -0.044799    -2.4466    0.32962    -0.58891    0.33174    -2.53468    -0.96432    -0.64568    -0.77863    -2.94671
O    5.66330    7.14025    2.09722    0.002456    0.001568    -0.044796    -2.44658    0.32962    -0.58891    0.33173    -2.53472    -0.96433    -0.6457    -0.77864    -2.94674
O    4.39870    0.65707    7.08115    -0.002456    -0.001566    -0.044816    -2.44661    0.32966    0.58886    0.33171    -2.53469    0.96433    0.64571    0.77863    -2.94671
O    4.39870    5.85528    7.08115    -0.002457    -0.001566    -0.044809    -2.44655    0.32963    0.5889    0.33175    -2.53469    0.96433    0.64568    0.77864    -2.94672
O    9.42970    0.65707    7.08115    -0.002455    -0.001567    -0.044816    -2.44668    0.32965    0.58893    0.33173    -2.53466    0.96434    0.6457    0.77865    -2.94671
O    9.42970    5.85528    7.08115    -0.002451    -0.001569    -0.044821    -2.44657    0.32964    0.58892    0.33173    -2.53473    0.96433    0.64568    0.77863    -2.94672
O    1.88320    4.54114    7.87064    -0.002450    0.001563    0.044807    -2.44655    -0.32962    -0.58887    -0.33171    -2.53466    0.96427    -0.64571    0.77861    -2.94674
O    1.88320    9.73935    7.87064    -0.002453    0.001564    0.044814    -2.44653    -0.32962    -0.5889    -0.33173    -2.53473    0.96428    -0.64569    0.77861    -2.94672
O    6.91420    4.54114    7.87064    -0.002454    0.001564    0.044814    -2.44659    -0.32962    -0.58891    -0.33171    -2.53472    0.96435    -0.64566    0.7786    -2.94671
O    6.91420    9.73935    7.87064    -0.002452    0.001567    0.044808    -2.44658    -0.32963    -0.5889    -0.33177    -2.53472    0.96428    -0.64571    0.77859    -2.94672
O    1.88320    1.94204    7.08115    -0.002453    0.001567    -0.044804    -2.44665    -0.32965    0.5889    -0.33172    -2.53467    -0.96428    0.64571    -0.77864    -2.94671
O    1.88320    7.14025    7.08115    -0.002456    0.001563    -0.044803    -2.44658    -0.32966    0.5889    -0.33174    -2.53471    -0.96434    0.64568    -0.77864    -2.94668
O    6.91420    1.94204    7.08115    -0.002454    0.001567    -0.044803    -2.44662    -0.32965    0.58891    -0.33171    -2.53469    -0.96431    0.64568    -0.77863    -2.94672
O    6.91420    7.14025    7.08115    -0.002455    0.001567    -0.044803    -2.44657    -0.32962    0.58891    -0.33174    -2.53471    -0.9643    0.64569    -0.77861    -2.94672
O    4.39870    3.25617    7.87064    -0.002455    -0.001565    0.044800    -2.4466    0.32967    -0.58886    0.33173    -2.53471    -0.96432    -0.64575    -0.77856    -2.9467
O    4.39870    8.45438    7.87064    -0.002457    -0.001565    0.044797    -2.44655    0.32962    -0.58888    0.33172    -2.5347    -0.96432    -0.64566    -0.77863    -2.94669
O    9.42970    3.25617    7.87064    -0.002454    -0.001564    0.044796    -2.44657    0.32964    -0.58892    0.33169    -2.53466    -0.9643    -0.64573    -0.7786    -2.9467
O    9.42970    8.45438    7.87064    -0.002455    -0.001565    0.044799    -2.44653    0.32963    -0.58891    0.33171    -2.53472    -0.96437    -0.64572    -0.77861    -2.9467
O    0.63230    4.54114    2.88671    0.002454    0.001566    0.044817    -2.44662    0.32964    0.5889    0.33175    -2.53469    0.9643    0.64571    0.7786    -2.9467
O    0.63230    9.73935    2.88671    0.002454    0.001567    0.044817    -2.44657    0.3296    0.58889    0.33177    -2.53469    0.96428    0.64567    0.7786    -2.94673
O    5.66330    4.54114    2.88671    0.002451    0.001564    0.044819    -2.44659    0.32964    0.58892    0.33173    -2.53472    0.96429    0.6457    0.77862    -2.94671
O    5.66330    9.73935    2.88671    0.002454    0.001566    0.044813    -2.44659    0.32963    0.58891    0.33176    -2.53475    0.96432    0.6457    0.77858    -2.94669
O    3.14780    0.65707    2.09722    0.002454    -0.001565    -0.044809    -2.4466    -0.32964    -0.58893    -0.33173    -2.53468    0.96437    -0.6457    0.77865    -2.94669
O    3.14780    5.85528    2.09722    0.002454    -0.001565    -0.044806    -2.44661    -0.32964    -0.58891    -0.33173    -2.53472    0.96432    -0.64568    0.77865    -2.94671
O    8.17880    0.65707    2.09722    0.002453    -0.001566    -0.044809    -2.44657    -0.32963    -0.58893    -0.33173    -2.53472    0.96433    -0.64567    0.77865    -2.94668
O    8.17880    5.85528    2.09722    0.002453    -0.001562    -0.044809    -2.44656    -0.32963    -0.58889    -0.33174    -2.53472    0.96434    -0.64566    0.77865    -2.94665
96
Lattice="6.600576885 0.000000000 0.000000000 0.000000000 11.004229029 0.000000000 0.000000000 0.000000000 12.887006907" Properties=species:S:1:pos:R:3:forces:R:3:becs:R:9 energy="-1098.53575112"
Hf    0.82507    4.13389    0.69528    -0.000012    0.049893    0.167058    4.93379    6e-05    -7e-05    1e-05    5.01115    -0.01074    2e-05    -0.08043    5.00356
Hf    0.82507    4.13389    7.13878    -0.000020    0.049889    0.167056    4.93377    1e-05    -8e-05    -4e-05    5.01116    -0.01074    2e-05    -0.08044    5.00357
Hf    0.82507    9.63601    0.69528    0.000014    0.049903    0.167029    4.93379    3e-05    -9e-05    -0.0    5.01113    -0.01075    -1e-05    -0.08041    5.00353
Hf    0.82507    9.63601    7.13878    0.000038    0.049949    0.167044    4.93379    5e-05    -3e-05    -2e-05    5.01113    -0.01075    0.0    -0.08039    5.00363
Hf    4.12536    4.13389    0.69528    0.000013    0.049886    0.167048    4.93376    2e-05    -7e-05    -2e-05    5.01118    -0.01072    -2e-05    -0.08042    5.00361
Hf    4.12536    4.13389    7.13878    0.000019    0.049912    0.167047    4.93376    5e-05    -7e-05    -6e-05    5.01112    -0.01076    -3e-05    -0.08037    5.00356
Hf    4.12536    9.63601    0.69528    -0.000014    0.049911    0.167031    4.93381    6e-05    -7e-05    -2e-05    5.01111    -0.01069    -8e-05    -0.08044    5.00356
Hf    4.12536    9.63601    7.13878    -0.000035    0.049911    0.167041    4.9338    3e-05    -2e-05    2e-05    5.0111    -0.01071    -2e-05    -0.08045    5.00355
Hf    2.47522    1.36822    5.74823    -0.000028    -0.049908    -0.167035    4.93378    -6e-05    6e-05    -2e-05    5.0111    -0.01074    2e-05    -0.08043    5.00355
Hf    2.47522    1.36822    12.19172    0.000022    -0.049933    -0.166715    4.93377    -4e-05    7e-05    -3e-05    5.01111    -0.01075    0.0    -0.08048    5.00357
Hf    2.47522    6.87034    5.74821    -0.000002    -0.049921    -0.166801    4.93377    -4e-05    4e-05    2e-05    5.01111    -0.01076    6e-05    -0.08044    5.00359
Hf    2.47522    6.87034    12.19172    -0.000007    -0.049918    -0.166788    4.93378    -4e-05    6e-05    1e-05    5.01111    -0.01074    3e-05    -0.08048    5.00356
Hf    5.77550    1.36822    5.74821    0.000025    -0.049919    -0.166788    4.93375    -7e-05    2e-05    -0.0    5.01109    -0.01076    5e-05    -0.08043    5.00353
Hf    5.77550    1.36822    12.19172    -0.000024    -0.049932    -0.166714    4.93379    -9e-05    4e-05    1e-05    5.01109    -0.0108    4e-05    -0.08039    5.00357
Hf    5.77550    6.87034    5.74823    0.000002    -0.049910    -0.167048    4.93384    -8e-05    4e-05    -2e-05    5.01116    -0.0107    4e-05    -0.08045    5.00352
Hf    5.77550    6.87034    12.19173    0.000004    -0.049897    -0.167021    4.93378    -8e-05    0.0001    5e-05    5.01114    -0.01072    -0.0    -0.0804    5.00356
Hf    0.82507    1.38283    2.52648    0.000024    0.049834    -0.167180    4.93378    1e-05    9e-05    3e-05    5.01114    0.01078    0.0    0.08049    5.00358
Hf    0.82507    1.38283    8.96998    -0.000013    0.049846    -0.167123    4.93378    7e-05    5e-05    -5e-05    5.01112    0.01075    7e-05    0.08047    5.0036
Hf    0.82507    6.88495    2.52648    -0.000011    0.049832    -0.167181    4.93382    8e-05    5e-05    -1e-05    5.01115    0.01073    1e-05    0.0804    5.00356
Hf    0.82507    6.88495    8.96997    -0.000003    0.049871    -0.166815    4.93378    7e-05    2e-05    -4e-05    5.01115    0.01075    2e-05    0.0805    5.00356
Hf    4.12536    1.38283    2.52648    -0.000025    0.049831    -0.167187    4.93383    4e-05    6e-05    -1e-05    5.01118    0.01078    5e-05    0.08045    5.00359
Hf    4.12536    1.38283    8.96997    0.000014    0.049857    -0.166873    4.93377    9e-05    6e-05    -6e-05    5.01114    0.01078    4e-05    0.08044    5.00359
Hf    4.12536    6.88495    2.52648    0.000012    0.049832    -0.167173    4.93379    7e-05    8e-05    -1e-05    5.01117    0.01077    -3e-05    0.0804    5.00356
Hf    4.12536    6.88495    8.96997    0.000003    0.049870    -0.166814    4.93376    5e-05    2e-05    -1e-05    5.01118    0.01079    6e-05    0.08045    5.00355
Hf    2.47522    4.11928    3.91703    -0.000000    -0.049877    0.167013    4.93375    -7e-05    -5e-05    3e-05    5.01112    0.01075    -2e-05    0.08041    5.00358
Hf    2.47522    4.11928    10.36053    0.000000    -0.049786    0.167029    4.93381    -0.0    -7e-05    5e-05    5.01111    0.01076    -6e-05    0.08043    5.00355
Hf    2.47522    9.62140    3.91703    -0.000004    -0.049800    0.167014    4.9338    -9e-05    -0.0001    2e-05    5.01112    0.01072    -1e-05    0.08049    5.00359
Hf    2.47522    9.62140    10.36053    0.000018    -0.049850    0.167026    4.93378    -5e-05    -3e-05    -2e-05    5.01114    0.01082    -4e-05    0.08042    5.00356
Hf    5.77550    4.11928    3.91703    -0.000000    -0.049793    0.166972    4.93378    -7e-05    -3e-05    -4e-05    5.01112    0.01074    -6e-05    0.08045    5.00352
Hf    5.77550    4.11928    10.36053    -0.000000    -0.049773    0.167034    4.93379    -3e-05    -7e-05    -2e-05    5.01114    0.01075    -0.0    0.08051    5.00356
Hf    5.77550    9.62140    3.91703    0.000003    -0.049856    0.167011    4.93378    -5e-05    -9e-05    -2e-05    5.01116    0.01082    -0.0    0.08048    5.00358
Hf    5.77550    9.62140    10.36053    -0.000017    -0.049911    0.167083    4.93377    -5e-05    -2e-05    -1e-05    5.01115    0.01072    -3e-05    0.08042    5.00351
O    2.47522    5.38775    2.20054    0.000001    -0.012358    -0.138162    -2.61736    -5e-05    -6e-05    3e-05    -2.60093    0.09571    6e-05    -0.03918    -2.31597
O    2.47522    5.38775    8.64403    -0.000001    -0.012407    -0.138061    -2.61737    -4e-05    -0.0    5e-05    -2.60091    0.09574    9e-05    -0.03923    -2.31595
O    2.47522    10.88986    2.20054    -0.000003    -0.012371    -0.138164    -2.6174    -5e-05    -3e-05    1e-05    -2.60092    0.09576    6e-05    -0.03918    -2.31595
O    2.47522    10.88986    8.64403    0.000006    -0.012392    -0.138043    -2.61739    -7e-05    -1e-05    4e-05    -2.60092    0.09572    4e-05    -0.03922    -2.31595
O    5.77550    5.38775    2.20053    -0.000001    -0.012406    -0.138000    -2.61736    -0.0001    -4e-05    2e-05    -2.60092    0.09573    6e-05    -0.03919    -2.31598
O    5.77550    5.38775    8.64403    -0.000001    -0.012400    -0.138068    -2.61735    -6e-05    -3e-05    3e-05    -2.60096    0.09574    6e-05    -0.03922    -2.316
O    5.77550    10.88986    2.20054    0.000002    -0.012368    -0.138162    -2.61735    -8e-05    -2e-05    -0.0    -2.60097    0.09576    3e-05    -0.03918    -2.31598
O    5.77550    10.88986    8.64405    -0.000006    -0.012349    -0.138205    -2.61739    -7e-05    -2e-05    3e-05    -2.60089    0.09576    4e-05    -0.03922    -2.31599
O    0.82507    0.11437    4.24296    -0.000021    0.012377    0.138222    -2.61735    9e-05    4e-05    -3e-05    -2.60092    0.09577    -4e-05    -0.03922    -2.31599
O    0.82507    0.11437    10.68646    0.000025    0.012388    0.138178    -2.61737    7e-05    0.0    3e-05    -2.60096    0.09576    -8e-05    -0.0392    -2.31596
O    0.82507    5.61648    4.24296    -0.000002    0.012377    0.138202    -2.61738    8e-05    3e-05    -2e-05    -2.60091    0.09574    -7e-05    -0.03921    -2.31593
O    0.82507    5.61648    10.68646    0.000021    0.012368    0.138105    -2.61738    3e-05    5e-05    -2e-05    -2.6009    0.09572    -9e-05    -0.0392    -2.31598
O    4.12536    0.11437    4.24296    0.000021    0.012377    0.138225    -2.61737    0.0001    2e-05    -2e-05    -2.60092    0.09572    -3e-05    -0.03921    -2.31598
O    4.12536    0.11437    10.68646    -0.000024    0.012404    0.138129    -2.61739    2e-05    4e-05    1e-05    -2.60096    0.09573    -6e-05    -0.0392    -2.31596
O    4.12536    5.61648    4.24296    0.000003    0.012376    0.138204    -2.61737    6e-05    3e-05    -3e-05    -2.60091    0.09572    -1e-05    -0.03914    -2.31595
O    4.12536    5.61648    10.68646    -0.000021    0.012365    0.138106    -2.61738    8e-05    2e-05    2e-05    -2.60091    0.09576    -5e-05    -0.03918    -2.31594
O    2.47522    2.63669    1.02121    -0.000001    -0.012317    0.137387    -2.61736    -4e-05    1e-05    3e-05    -2.6009    -0.09563    -1e-05    0.03916    -2.31557
O    2.47522    2.63669    7.46471    0.000021    -0.012315    0.137434    -2.61731    -9e-05    3e-05    1e-05    -2.6009    -0.09565    -7e-05    0.03919    -2.31555
O    2.47522    8.13880    1.02121    0.000002    -0.012320    0.137398    -2.61737    -6e-05    -1e-05    0.0    -2.60093    -0.09567    -3e-05    0.03919    -2.3156
O    2.47522    8.13880    7.46471    0.000002    -0.012352    0.137392    -2.61735    -0.0001    2e-05    5e-05    -2.60091    -0.09568    -6e-05    0.03921    -2.3156
O    5.77550    2.63669    1.02121    0.000003    -0.012323    0.137390    -2.61738    -6e-05    2e-05    3e-05    -2.60097    -0.09565    -6e-05    0.03916    -2.31558
O    5.77550    2.63669    7.46471    -0.000020    -0.012347    0.137392    -2.61735    -7e-05    5e-05    1e-05    -2.60092    -0.09565    -8e-05    0.03921    -2.31558
O    5.77550    8.13880    1.02121    -0.000001    -0.012293    0.137443    -2.61735    -8e-05    0.0    1e-05    -2.60092    -0.09565    -6e-05    0.03915    -2.31553
O    5.77550    8.13880    7.46471    -0.000002    -0.012326    0.137439    -2.61735    -5e-05    4e-05    3e-05    -2.60094    -0.09566    -8e-05    0.03917    -2.31557
O    0.82507    2.86542    5.42229    -0.000011    0.012302    -0.137447    -2.61736    0.0001    -3e-05    -4e-05    -2.60094    -0.09567    4e-05    0.03915    -2.31553
O    0.82507    2.86542    11.86580    -0.000002    0.012296    -0.137483    -2.61735    6e-05    -2e-05    1e-05    -2.60094    -0.0957    5e-05    0.03916    -2.31556
O    0.82507    8.36754    5.42229    0.000007    0.012290    -0.137448    -2.6173    7e-05    -6e-05    0.0    -2.60089    -0.09566    6e-05    0.03918    -2.31551
O    0.82507    8.36754    11.86580    0.000010    0.012320    -0.137452    -2.61737    9e-05    -3e-05    2e-05    -2.60092    -0.0957    3e-05    0.03919    -2.31555
O    4.12536    2.86542    5.42229    0.000009    0.012296    -0.137449    -2.61734    8e-05    -1e-05    -2e-05    -2.60091    -0.09566    1e-05    0.03913    -2.31557
O    4.12536    2.86542    11.86580    0.000000    0.012305    -0.137483    -2.61738    9e-05    -2e-05    -7e-05    -2.60094    -0.09566    3e-05    0.03918    -2.31556
O    4.12536    8.36754    5.42229    -0.000008    0.012290    -0.137444    -2.61734    4e-05    -6e-05    -3e-05    -2.60091    -0.0957    4e-05    0.0392    -2.31558
O    4.12536    8.36754    11.86580    -0.000009    0.012315    -0.137448    -2.61734    9e-05    -4e-05    -1e-05    -2.60094    -0.09568    8e-05    0.0392    -2.31556
O    2.47522    4.73470    5.95072    -0.000000    -0.007782    -0.017523    -2.3164    -4e-05    6e-05    0.0    -2.41022    0.21118    2e-05    0.22339    -2.68781
O    2.47522    4.73470    12.39422    0.000001    -0.007793    -0.017529    -2.3164    1e-05    9e-05    -2e-05    -2.4102    0.21115    1e-05    0.22339    -2.68778
O    2.47522    10.23681    5.95072    0.000005    -0.007795    -0.017510    -2.31644    -2e-05    3e-05    -3e-05    -2.41018    0.21111    0.0    0.22343    -2.68778
O    2.47522    10.23681    12.39422    -0.000005    -0.007789    -0.017529    -2.31647    -1e-05    7e-05    -3e-05    -2.4102    0.21116    -2e-05    0.22342    -2.68785
O    5.77550    4.73470    5.95072    0.000002    -0.007786    -0.017520    -2.31637    -2e-05    8e-05    2e-05    -2.41023    0.21114    2e-05    0.22339    -2.68783
O    5.77550    4.73470    12.39422    0.000000    -0.007805    -0.017538    -2.31641    -3e-05    4e-05    -3e-05    -2.41025    0.21113    -1e-05    0.22338    -2.68783
O    5.77550    10.23681    5.95072    -0.000003    -0.007789    -0.017497    -2.31644    -4e-05    5e-05    -5e-05    -2.41022    0.21115    3e-05    0.22338    -2.6878
O    5.77550    10.23681    12.39422    0.000005    -0.007792    -0.017523    -2.31646    2e-05    8e-05    0.0    -2.41022    0.21116    1e-05    0.2234    -2.68778
O    0.82507    0.76742    0.49278    -0.000000    0.007803    0.017417    -2.31638    1e-05    -5e-05    4e-05    -2.41019    0.21113    1e-05    0.22341    -2.68776
O    0.82507    0.76742    6.93629    -0.000049    0.007813    0.017432    -2.31643    3e-05    -4e-05    4e-05    -2.41018    0.21116    -1e-05    0.2234    -2.68778
O    0.82507    6.26953    0.49278    0.000047    0.007810    0.017440    -2.31642    1e-05    -7e-05    3e-05    -2.41022    0.21117    -1e-05    0.22341    -2.68786
O    0.82507    6.26953    6.93629    0.000023    0.007808    0.017336    -2.31643    3e-05    -3e-05    3e-05    -2.41018    0.21112    2e-05    0.22337    -2.68777
O    4.12536    0.76742    0.49278    -0.000002    0.007803    0.017419    -2.31641    5e-05    -8e-05    2e-05    -2.41021    0.21115    2e-05    0.22336    -2.6878
O    4.12536    0.76742    6.93629    0.000047    0.007791    0.017369    -2.31643    2e-05    -8e-05    1e-05    -2.41021    0.21114    -2e-05    0.2234    -2.68782
O    4.12536    6.26953    0.49278    -0.000047    0.007811    0.017441    -2.31641    4e-05    -4e-05    4e-05    -2.41022    0.21115    0.0    0.2234    -2.68783
O    4.12536    6.26953    6.93629    -0.000025    0.007810    0.017336    -2.31641    3e-05    -7e-05    2e-05    -2.41019    0.21111    -4e-05    0.22339    -2.68784
O    2.47522    1.98364    3.71454    0.000000    -0.007818    0.021147    -2.31646    -3e-05    -3e-05    -3e-05    -2.41019    -0.21123    -1e-05    -0.22334    -2.68778
O    2.47522    1.98364    10.15804    0.000025    -0.007831    0.021008    -2.31641    -5e-05    -8e-05    -4e-05    -2.41022    -0.21124    -2e-05    -0.22335    -2.68785
O    2.47522    7.48576    3.71454    -0.000001    -0.007800    0.021088    -2.31641    -3e-05    -7e-05    -2e-05    -2.41022    -0.21123    -1e-05    -0.22339    -2.68778
O    2.47522    7.48576    10.15804    -0.000000    -0.007827    0.020979    -2.31642    -1e-05    -5e-05    1e-05    -2.41022    -0.21124    -4e-05    -0.22339    -2.6878
O    5.77550    1.98364    3.71454    -0.000002    -0.007788    0.021089    -2.31643    -3e-05    -5e-05    -2e-05    -2.41022    -0.21123    -0.0    -0.22341    -2.6878
O    5.77550    1.98364    10.15804    -0.000023    -0.007810    0.021023    -2.31638    -3e-05    -4e-05    -1e-05    -2.41024    -0.21124    2e-05    -0.22339    -2.68779
O    5.77550    7.48576    3.71454    -0.000000    -0.007844    0.021137    -2.31643    -0.0    -2e-05    -1e-05    -2.41023    -0.21121    2e-05    -0.2234    -2.68782
O    5.77550    7.48576    10.15804    -0.000001    -0.007855    0.021033    -2.3164    1e-05    -3e-05    -8e-05    -2.41023    -0.21122    -0.0    -0.2234    -2.68778
O    0.82507    3.51847    2.72897    -0.000015    0.007832    -0.021086    -2.31642    3e-05    8e-05    4e-05    -2.41021    -0.21125    1e-05    -0.2234    -2.68779
O    0.82507    3.51847    9.17247    0.000004    0.007827    -0.021130    -2.3164    4e-05    5e-05    6e-05    -2.41021    -0.21126    2e-05    -0.22344    -2.68779
O    0.82507    9.02059    2.72897    0.000003    0.007819    -0.021095    -2.31647    -2e-05    0.00013    6e-05    -2.4102    -0.21128    -2e-05    -0.22341    -2.6878
O    0.82507    9.02059    9.17247    0.000011    0.007835    -0.021152    -2.31641    4e-05    9e-05    -1e-05    -2.41025    -0.21123    1e-05    -0.22341    -2.68777
O    4.12536    3.51847    2.72897    0.000016    0.007834    -0.021083    -2.31647    0.0    4e-05    7e-05    -2.41018    -0.21126    4e-05    -0.22338    -2.68777
O    4.12536    3.51847    9.17247    -0.000002    0.007819    -0.021140    -2.31643    2e-05    5e-05    2e-05    -2.41018    -0.21123    -1e-05    -0.22338    -2.68777
O    4.12536    9.02059    2.72897    -0.000002    0.007817    -0.021095    -2.31643    2e-05    6e-05    -4e-05    -2.41019    -0.21122    1e-05    -0.22339    -2.68775
O    4.12536    9.02059    9.17247    -0.000010    0.007827    -0.021153    -2.31643    0.0    0.0    1e-05    -2.4102    -0.21126    -2e-05    -0.2234    -2.68781
